Sr Pb  S                                
   1.00000000000000     
     6.0325567951557080    0.0000000000000000    0.0000000000000000
     0.0000000000000000    6.0347368467039972    0.0000000000000000
     0.0000000000000000    0.0000000000000000   18.1249025475951626
   Sr   Pb   S 
     6     6    12
Direct
  0.0000000000000000  0.0000000000000000  0.9992233970396934
  0.0000000000000000  0.5000000000000000  0.1666666666666643
  0.5000000000000000  0.0000000000000000  0.1666666666666643
  0.0000000000000000  0.0000000000000000  0.3341099362936423
  0.0000000000000000  0.5000000000000000  0.5011815381836420
  0.0000000000000000  0.5000000000000000  0.8321517951496937
  0.5000000000000000  0.5000000000000000  0.9996145057008389
  0.5000000000000000  0.0000000000000000  0.5003424044899401
  0.5000000000000000  0.5000000000000000  0.3337188276324971
  0.0000000000000000  0.0000000000000000  0.6666666666666643
  0.5000000000000000  0.0000000000000000  0.8329909288433957
  0.5000000000000000  0.5000000000000000  0.6666666666666643
  0.0000000000000000  0.0000000000000000  0.1666666666666643
  0.5000000000000000  0.0000000000000000  0.0000811366947913
  0.0000000000000000  0.5000000000000000  0.9995259724320485
  0.5000000000000000  0.5000000000000000  0.1666666666666643
  0.0000000000000000  0.0000000000000000  0.4999010672077493
  0.5000000000000000  0.0000000000000000  0.3332521966385445
  0.0000000000000000  0.5000000000000000  0.3338073609012872
  0.5000000000000000  0.5000000000000000  0.5004333126040049
  0.0000000000000000  0.0000000000000000  0.8334322661255873
  0.5000000000000000  0.0000000000000000  0.6666666666666643
  0.0000000000000000  0.5000000000000000  0.6666666666666643
  0.5000000000000000  0.5000000000000000  0.8329000207293308
 
  0.00000000E+00  0.00000000E+00  0.00000000E+00
  0.00000000E+00  0.00000000E+00  0.00000000E+00
  0.00000000E+00  0.00000000E+00  0.00000000E+00
  0.00000000E+00  0.00000000E+00  0.00000000E+00
  0.00000000E+00  0.00000000E+00  0.00000000E+00
  0.00000000E+00  0.00000000E+00  0.00000000E+00
  0.00000000E+00  0.00000000E+00  0.00000000E+00
  0.00000000E+00  0.00000000E+00  0.00000000E+00
  0.00000000E+00  0.00000000E+00  0.00000000E+00
  0.00000000E+00  0.00000000E+00  0.00000000E+00
  0.00000000E+00  0.00000000E+00  0.00000000E+00
  0.00000000E+00  0.00000000E+00  0.00000000E+00
  0.00000000E+00  0.00000000E+00  0.00000000E+00
  0.00000000E+00  0.00000000E+00  0.00000000E+00
  0.00000000E+00  0.00000000E+00  0.00000000E+00
  0.00000000E+00  0.00000000E+00  0.00000000E+00
  0.00000000E+00  0.00000000E+00  0.00000000E+00
  0.00000000E+00  0.00000000E+00  0.00000000E+00
  0.00000000E+00  0.00000000E+00  0.00000000E+00
  0.00000000E+00  0.00000000E+00  0.00000000E+00
  0.00000000E+00  0.00000000E+00  0.00000000E+00
  0.00000000E+00  0.00000000E+00  0.00000000E+00
  0.00000000E+00  0.00000000E+00  0.00000000E+00
  0.00000000E+00  0.00000000E+00  0.00000000E+00
