Sr Pb  S                                
   1.00000000000000     
     6.0284900960110699    0.0000000000000000    0.0000000000000000
     0.0000000000000000    6.0291145294992825    0.0000000000000000
     0.0000000000000000    0.0000000000000000   18.1263071029246632
   Sr   Pb   S 
     5     7    12
Direct
  0.0000000000000000  0.0000000000000000  0.9991815328678822
  0.0000000000000000  0.5000000000000000  0.1674244284425948
  0.5000000000000000  0.0000000000000000  0.1679336790226743
 -0.0000000000000000  0.5000000000000000  0.8334147237310247
  0.5000000000000000  0.5000000000000000  0.6653555261088715
  0.5000000000000000  0.5000000000000000  0.9997583230955959
  0.0000000000000000  0.0000000000000000  0.3339339867778315
 -0.0000000000000000  0.5000000000000000  0.4999000470608053
  0.5000000000000000 -0.0000000000000000  0.5000591972235494
  0.5000000000000000  0.5000000000000000  0.3337432678636167
 -0.0000000000000000 -0.0000000000000000  0.6660791119289915
  0.5000000000000000  0.0000000000000000  0.8331647589215448
 -0.0000000000000000 -0.0000000000000000  0.1663947213773667
  0.5000000000000000 -0.0000000000000000  0.0004103201841509
  0.0000000000000000  0.5000000000000000  0.9999197302603383
  0.5000000000000000  0.5000000000000000  0.1673224205470022
  0.0000000000000000 -0.0000000000000000  0.5001381641363331
  0.5000000000000000  0.0000000000000000  0.3334177277411813
 -0.0000000000000000  0.5000000000000000  0.3333130955443721
  0.5000000000000000  0.5000000000000000  0.5000901256617105
 -0.0000000000000000  0.0000000000000000  0.8336246788032212
  0.5000000000000000  0.0000000000000000  0.6661091276256415
  0.0000000000000000  0.5000000000000000  0.6667903346986184
  0.5000000000000000  0.5000000000000000  0.8325209703750742
 
  0.00000000E+00  0.00000000E+00  0.00000000E+00
  0.00000000E+00  0.00000000E+00  0.00000000E+00
  0.00000000E+00  0.00000000E+00  0.00000000E+00
  0.00000000E+00  0.00000000E+00  0.00000000E+00
  0.00000000E+00  0.00000000E+00  0.00000000E+00
  0.00000000E+00  0.00000000E+00  0.00000000E+00
  0.00000000E+00  0.00000000E+00  0.00000000E+00
  0.00000000E+00  0.00000000E+00  0.00000000E+00
  0.00000000E+00  0.00000000E+00  0.00000000E+00
  0.00000000E+00  0.00000000E+00  0.00000000E+00
  0.00000000E+00  0.00000000E+00  0.00000000E+00
  0.00000000E+00  0.00000000E+00  0.00000000E+00
  0.00000000E+00  0.00000000E+00  0.00000000E+00
  0.00000000E+00  0.00000000E+00  0.00000000E+00
  0.00000000E+00  0.00000000E+00  0.00000000E+00
  0.00000000E+00  0.00000000E+00  0.00000000E+00
  0.00000000E+00  0.00000000E+00  0.00000000E+00
  0.00000000E+00  0.00000000E+00  0.00000000E+00
  0.00000000E+00  0.00000000E+00  0.00000000E+00
  0.00000000E+00  0.00000000E+00  0.00000000E+00
  0.00000000E+00  0.00000000E+00  0.00000000E+00
  0.00000000E+00  0.00000000E+00  0.00000000E+00
  0.00000000E+00  0.00000000E+00  0.00000000E+00
  0.00000000E+00  0.00000000E+00  0.00000000E+00
