Sr  S Pb                                
   1.00000000000000     
     6.0373859464935684    0.0000000000000000    0.0000000000000000
     0.0000000000000000    6.0380133827621059    0.0000000000000000
     0.0000000000000000    0.0000000000000000   18.1535161137162078
   Sr   S    Pb
     7    12     5
Direct
  0.0000000000000000  0.0000000000000000  0.9986521194952310
  0.0000000000000000  0.5000000000000000  0.1677767616863273
  0.5000000000000000  0.0000000000000000  0.1673126402706678
  0.5000000000000000  0.5000000000000000  0.9977582536074201
  0.0000000000000000  0.0000000000000000  0.3340721720508239
  0.0000000000000000  0.5000000000000000  0.5000202579285451
  0.5000000000000000  0.5000000000000000  0.6678814394820179
  0.0000000000000000  0.0000000000000000  0.1669046494817893
  0.5000000000000000  0.0000000000000000  0.9999122373808881
  0.0000000000000000  0.5000000000000000  0.0000513677544423
  0.5000000000000000  0.5000000000000000  0.1658849169616042
  0.0000000000000000  0.0000000000000000  0.4998199190568150
  0.5000000000000000  0.0000000000000000  0.3331660859958993
  0.0000000000000000  0.5000000000000000  0.3337940433417271
  0.5000000000000000  0.5000000000000000  0.5010411534665334
  0.0000000000000000  0.0000000000000000  0.8334658982662373
  0.5000000000000000  0.0000000000000000  0.6666838744631792
  0.0000000000000000  0.5000000000000000  0.6661161835920997
  0.5000000000000000  0.5000000000000000  0.8330763201135075
  0.5000000000000000  0.0000000000000000  0.5006041128177910
  0.5000000000000000  0.5000000000000000  0.3335566279995587
  0.0000000000000000  0.0000000000000000  0.6663069303416979
  0.0000000000000000  0.5000000000000000  0.8330777019116330
  0.5000000000000000  0.0000000000000000  0.8330643325335768
 
  0.00000000E+00  0.00000000E+00  0.00000000E+00
  0.00000000E+00  0.00000000E+00  0.00000000E+00
  0.00000000E+00  0.00000000E+00  0.00000000E+00
  0.00000000E+00  0.00000000E+00  0.00000000E+00
  0.00000000E+00  0.00000000E+00  0.00000000E+00
  0.00000000E+00  0.00000000E+00  0.00000000E+00
  0.00000000E+00  0.00000000E+00  0.00000000E+00
  0.00000000E+00  0.00000000E+00  0.00000000E+00
  0.00000000E+00  0.00000000E+00  0.00000000E+00
  0.00000000E+00  0.00000000E+00  0.00000000E+00
  0.00000000E+00  0.00000000E+00  0.00000000E+00
  0.00000000E+00  0.00000000E+00  0.00000000E+00
  0.00000000E+00  0.00000000E+00  0.00000000E+00
  0.00000000E+00  0.00000000E+00  0.00000000E+00
  0.00000000E+00  0.00000000E+00  0.00000000E+00
  0.00000000E+00  0.00000000E+00  0.00000000E+00
  0.00000000E+00  0.00000000E+00  0.00000000E+00
  0.00000000E+00  0.00000000E+00  0.00000000E+00
  0.00000000E+00  0.00000000E+00  0.00000000E+00
  0.00000000E+00  0.00000000E+00  0.00000000E+00
  0.00000000E+00  0.00000000E+00  0.00000000E+00
  0.00000000E+00  0.00000000E+00  0.00000000E+00
  0.00000000E+00  0.00000000E+00  0.00000000E+00
  0.00000000E+00  0.00000000E+00  0.00000000E+00
