Sr Pb  S                                
   1.00000000000000     
     6.0373050433576232    0.0000000000000000    0.0000000000000000
     0.0000000000000000    6.0390299980747280    0.0000000000000000
     0.0000000000000000    0.0000000000000000   18.1441906566465931
   Sr   Pb   S 
     7     5    12
Direct
  0.0000000000000000  0.0000000000000000  0.9980727537755316
  0.0000000000000000  0.5000000000000000  0.1667923742782418
  0.5000000000000000  0.0000000000000000  0.1664640331690199
  0.0000000000000000  0.0000000000000000  0.3340425719150355
  0.0000000000000000  0.5000000000000000  0.4989141325045926
  0.0000000000000000  0.0000000000000000  0.6674373920381842
  0.5000000000000000  0.5000000000000000  0.6677266202894168
  0.5000000000000000  0.5000000000000000  0.0002534615147581
  0.5000000000000000  0.0000000000000000  0.5002335678661441
  0.5000000000000000  0.5000000000000000  0.3336952451440456
  0.0000000000000000  0.5000000000000000  0.8333563028581520
  0.5000000000000000  0.0000000000000000  0.8335636256452422
  0.0000000000000000  0.0000000000000000  0.1664737949139217
  0.5000000000000000  0.0000000000000000  0.0000449418691479
  0.0000000000000000  0.5000000000000000  0.0002105795778934
  0.5000000000000000  0.5000000000000000  0.1663808373233774
  0.0000000000000000  0.0000000000000000  0.5000154200561907
  0.5000000000000000  0.0000000000000000  0.3329881062192794
  0.0000000000000000  0.5000000000000000  0.3334022334935365
  0.5000000000000000  0.5000000000000000  0.5005335547311356
  0.0000000000000000  0.0000000000000000  0.8331541269585511
  0.5000000000000000  0.0000000000000000  0.6670637342319806
  0.0000000000000000  0.5000000000000000  0.6660604447908305
  0.5000000000000000  0.5000000000000000  0.8331201448358011
 
  0.00000000E+00  0.00000000E+00  0.00000000E+00
  0.00000000E+00  0.00000000E+00  0.00000000E+00
  0.00000000E+00  0.00000000E+00  0.00000000E+00
  0.00000000E+00  0.00000000E+00  0.00000000E+00
  0.00000000E+00  0.00000000E+00  0.00000000E+00
  0.00000000E+00  0.00000000E+00  0.00000000E+00
  0.00000000E+00  0.00000000E+00  0.00000000E+00
  0.00000000E+00  0.00000000E+00  0.00000000E+00
  0.00000000E+00  0.00000000E+00  0.00000000E+00
  0.00000000E+00  0.00000000E+00  0.00000000E+00
  0.00000000E+00  0.00000000E+00  0.00000000E+00
  0.00000000E+00  0.00000000E+00  0.00000000E+00
  0.00000000E+00  0.00000000E+00  0.00000000E+00
  0.00000000E+00  0.00000000E+00  0.00000000E+00
  0.00000000E+00  0.00000000E+00  0.00000000E+00
  0.00000000E+00  0.00000000E+00  0.00000000E+00
  0.00000000E+00  0.00000000E+00  0.00000000E+00
  0.00000000E+00  0.00000000E+00  0.00000000E+00
  0.00000000E+00  0.00000000E+00  0.00000000E+00
  0.00000000E+00  0.00000000E+00  0.00000000E+00
  0.00000000E+00  0.00000000E+00  0.00000000E+00
  0.00000000E+00  0.00000000E+00  0.00000000E+00
  0.00000000E+00  0.00000000E+00  0.00000000E+00
  0.00000000E+00  0.00000000E+00  0.00000000E+00
