Sr Pb  S                                
   1.00000000000000     
     6.0230138118362895    0.0000000000000000    0.0000000000000000
     0.0000000000000000    6.0245071952875593    0.0000000000000000
     0.0000000000000000    0.0000000000000000   18.1115213661332106
   Sr   Pb   S 
     4     8    12
Direct
 -0.0000000000000000 -0.0000000000000000  0.9988245325501955
 -0.0000000000000000  0.5000000000000000  0.1678421341164689
  0.5000000000000000 -0.0000000000000000  0.4988245325501954
  0.5000000000000000  0.5000000000000000  0.6678421341164688
  0.5000000000000000  0.0000000000000000  0.1661939419269528
  0.5000000000000000  0.5000000000000000  0.0004727247397115
 -0.0000000000000000  0.0000000000000000  0.3329538497248108
 -0.0000000000000000  0.5000000000000000  0.5004727247397115
  0.5000000000000000  0.5000000000000000  0.3337128169418606
 -0.0000000000000000  0.0000000000000000  0.6661939419269528
  0.0000000000000000  0.5000000000000000  0.8337128169418605
  0.5000000000000000 -0.0000000000000000  0.8329538497248109
  0.0000000000000000  0.0000000000000000  0.1661993303681781
  0.5000000000000000 -0.0000000000000000  0.9999449155099548
  0.0000000000000000  0.5000000000000000  0.0004673362984862
  0.5000000000000000  0.5000000000000000  0.1667217511567097
  0.0000000000000000  0.0000000000000000  0.4999449155099546
  0.5000000000000000 -0.0000000000000000  0.3333922003216328
  0.0000000000000000  0.5000000000000000  0.3332744663450386
  0.5000000000000000  0.5000000000000000  0.5004673362984862
  0.0000000000000000  0.0000000000000000  0.8333922003216329
  0.5000000000000000  0.0000000000000000  0.6661993303681781
 -0.0000000000000000  0.5000000000000000  0.6667217511567095
  0.5000000000000000  0.5000000000000000  0.8332744663450385
 
  0.00000000E+00  0.00000000E+00  0.00000000E+00
  0.00000000E+00  0.00000000E+00  0.00000000E+00
  0.00000000E+00  0.00000000E+00  0.00000000E+00
  0.00000000E+00  0.00000000E+00  0.00000000E+00
  0.00000000E+00  0.00000000E+00  0.00000000E+00
  0.00000000E+00  0.00000000E+00  0.00000000E+00
  0.00000000E+00  0.00000000E+00  0.00000000E+00
  0.00000000E+00  0.00000000E+00  0.00000000E+00
  0.00000000E+00  0.00000000E+00  0.00000000E+00
  0.00000000E+00  0.00000000E+00  0.00000000E+00
  0.00000000E+00  0.00000000E+00  0.00000000E+00
  0.00000000E+00  0.00000000E+00  0.00000000E+00
  0.00000000E+00  0.00000000E+00  0.00000000E+00
  0.00000000E+00  0.00000000E+00  0.00000000E+00
  0.00000000E+00  0.00000000E+00  0.00000000E+00
  0.00000000E+00  0.00000000E+00  0.00000000E+00
  0.00000000E+00  0.00000000E+00  0.00000000E+00
  0.00000000E+00  0.00000000E+00  0.00000000E+00
  0.00000000E+00  0.00000000E+00  0.00000000E+00
  0.00000000E+00  0.00000000E+00  0.00000000E+00
  0.00000000E+00  0.00000000E+00  0.00000000E+00
  0.00000000E+00  0.00000000E+00  0.00000000E+00
  0.00000000E+00  0.00000000E+00  0.00000000E+00
  0.00000000E+00  0.00000000E+00  0.00000000E+00
