Sr  S Pb                                
   1.00000000000000     
     6.0251091353265140    0.0000000000000000    0.0000000000000000
     0.0000000000000000    6.0251091353265140    0.0000000000000000
     0.0000000000000000   -0.0000000000000000   18.1162410225214430
   Sr   S    Pb
     4    12     8
Direct
  0.0000000000000000  0.0000000000000000  0.9980254728499431
 -0.0000000000000000  0.5000000000000000  0.1686411938167212
  0.5000000000000000  0.0000000000000000  0.1686411938167212
  0.5000000000000000  0.5000000000000000  0.9980254728499431
 -0.0000000000000000  0.0000000000000000  0.1666707332430747
  0.5000000000000000 -0.0000000000000000  0.9999959334235896
  0.0000000000000000  0.5000000000000000  0.9999959334235896
  0.5000000000000000  0.5000000000000000  0.1666707332430747
 -0.0000000000000000  0.0000000000000000  0.5006328585925908
  0.5000000000000000 -0.0000000000000000  0.3336553999671852
  0.0000000000000000  0.5000000000000000  0.3336553999671852
  0.5000000000000000  0.5000000000000000  0.5006328585925908
  0.0000000000000000  0.0000000000000000  0.8330112666994862
  0.5000000000000000 -0.0000000000000000  0.6660338080740735
  0.0000000000000000  0.5000000000000000  0.6660338080740735
  0.5000000000000000  0.5000000000000000  0.8330112666994862
  0.0000000000000000  0.0000000000000000  0.3340995854554463
  0.0000000000000000  0.5000000000000000  0.5008808098913774
  0.5000000000000000  0.0000000000000000  0.5008808098913774
  0.5000000000000000  0.5000000000000000  0.3340995854554463
 -0.0000000000000000 -0.0000000000000000  0.6657858567752869
 -0.0000000000000000  0.5000000000000000  0.8325670812112250
  0.5000000000000000 -0.0000000000000000  0.8325670812112250
  0.5000000000000000  0.5000000000000000  0.6657858567752869
 
  0.00000000E+00  0.00000000E+00  0.00000000E+00
  0.00000000E+00  0.00000000E+00  0.00000000E+00
  0.00000000E+00  0.00000000E+00  0.00000000E+00
  0.00000000E+00  0.00000000E+00  0.00000000E+00
  0.00000000E+00  0.00000000E+00  0.00000000E+00
  0.00000000E+00  0.00000000E+00  0.00000000E+00
  0.00000000E+00  0.00000000E+00  0.00000000E+00
  0.00000000E+00  0.00000000E+00  0.00000000E+00
  0.00000000E+00  0.00000000E+00  0.00000000E+00
  0.00000000E+00  0.00000000E+00  0.00000000E+00
  0.00000000E+00  0.00000000E+00  0.00000000E+00
  0.00000000E+00  0.00000000E+00  0.00000000E+00
  0.00000000E+00  0.00000000E+00  0.00000000E+00
  0.00000000E+00  0.00000000E+00  0.00000000E+00
  0.00000000E+00  0.00000000E+00  0.00000000E+00
  0.00000000E+00  0.00000000E+00  0.00000000E+00
  0.00000000E+00  0.00000000E+00  0.00000000E+00
  0.00000000E+00  0.00000000E+00  0.00000000E+00
  0.00000000E+00  0.00000000E+00  0.00000000E+00
  0.00000000E+00  0.00000000E+00  0.00000000E+00
  0.00000000E+00  0.00000000E+00  0.00000000E+00
  0.00000000E+00  0.00000000E+00  0.00000000E+00
  0.00000000E+00  0.00000000E+00  0.00000000E+00
  0.00000000E+00  0.00000000E+00  0.00000000E+00
