Sr Pb  S                                
   1.00000000000000     
     6.0289098896186513    0.0000000000000000    0.0000000000000000
     0.0000000000000000    6.0304545170251060    0.0000000000000000
     0.0000000000000000    0.0000000000000000   18.1039961583644633
   Sr   Pb   S 
     5     7    12
Direct
 -0.0000000000000000  0.0000000000000000  0.9990371158257656
  0.0000000000000000  0.5000000000000000  0.1666666666666643
 -0.0000000000000000  0.0000000000000000  0.3342962175075695
  0.0000000000000000  0.0000000000000000  0.6666666666666643
  0.5000000000000000  0.5000000000000000  0.6666666666666643
  0.5000000000000000  0.0000000000000000  0.1666666666666643
  0.5000000000000000  0.5000000000000000  0.0000149219087678
 -0.0000000000000000  0.5000000000000000  0.4998465367251583
  0.5000000000000000  0.0000000000000000  0.4997979802304949
  0.5000000000000000  0.5000000000000000  0.3333184114245680
 -0.0000000000000000  0.5000000000000000  0.8334867966081833
  0.5000000000000000 -0.0000000000000000  0.8335353531028409
  0.0000000000000000  0.0000000000000000  0.1666666666666643
  0.5000000000000000  0.0000000000000000  0.9997514919713077
  0.0000000000000000  0.5000000000000000  0.0002841470406694
  0.5000000000000000  0.5000000000000000  0.1666666666666643
  0.0000000000000000 -0.0000000000000000  0.5000823608304277
  0.5000000000000000 -0.0000000000000000  0.3335818413620276
  0.0000000000000000  0.5000000000000000  0.3330491862926657
  0.5000000000000000  0.5000000000000000  0.5001733917426261
  0.0000000000000000 -0.0000000000000000  0.8332509725029080
  0.5000000000000000  0.0000000000000000  0.6666666666666643
 -0.0000000000000000  0.5000000000000000  0.6666666666666643
  0.5000000000000000  0.5000000000000000  0.8331599415907096
 
  0.00000000E+00  0.00000000E+00  0.00000000E+00
  0.00000000E+00  0.00000000E+00  0.00000000E+00
  0.00000000E+00  0.00000000E+00  0.00000000E+00
  0.00000000E+00  0.00000000E+00  0.00000000E+00
  0.00000000E+00  0.00000000E+00  0.00000000E+00
  0.00000000E+00  0.00000000E+00  0.00000000E+00
  0.00000000E+00  0.00000000E+00  0.00000000E+00
  0.00000000E+00  0.00000000E+00  0.00000000E+00
  0.00000000E+00  0.00000000E+00  0.00000000E+00
  0.00000000E+00  0.00000000E+00  0.00000000E+00
  0.00000000E+00  0.00000000E+00  0.00000000E+00
  0.00000000E+00  0.00000000E+00  0.00000000E+00
  0.00000000E+00  0.00000000E+00  0.00000000E+00
  0.00000000E+00  0.00000000E+00  0.00000000E+00
  0.00000000E+00  0.00000000E+00  0.00000000E+00
  0.00000000E+00  0.00000000E+00  0.00000000E+00
  0.00000000E+00  0.00000000E+00  0.00000000E+00
  0.00000000E+00  0.00000000E+00  0.00000000E+00
  0.00000000E+00  0.00000000E+00  0.00000000E+00
  0.00000000E+00  0.00000000E+00  0.00000000E+00
  0.00000000E+00  0.00000000E+00  0.00000000E+00
  0.00000000E+00  0.00000000E+00  0.00000000E+00
  0.00000000E+00  0.00000000E+00  0.00000000E+00
  0.00000000E+00  0.00000000E+00  0.00000000E+00
