Sr Pb  S                                
   1.00000000000000     
     6.0279138570189135    0.0000000000000000    0.0000000000000000
     0.0000000000000000    6.0279138570189135    0.0000000000000000
     0.0000000000000000    0.0000000000000000   18.1291312901206005
   Sr   Pb   S 
     5     7    12
Direct
 -0.0000000000000000  0.0000000000000000  0.0002686207026691
  0.0000000000000000  0.5000000000000000  0.1681545668629807
  0.0000000000000000  0.5000000000000000  0.4985120998036839
  0.5000000000000000  0.0000000000000000  0.8333333333333357
  0.5000000000000000  0.5000000000000000  0.6663980459639948
  0.5000000000000000  0.0000000000000000  0.1668724317677432
  0.5000000000000000  0.5000000000000000  0.0001982102872866
 -0.0000000000000000  0.0000000000000000  0.3334432636675384
  0.5000000000000000  0.0000000000000000  0.4997942348989216
  0.5000000000000000  0.5000000000000000  0.3332234029991330
  0.0000000000000000 -0.0000000000000000  0.6664684563793770
  0.0000000000000000  0.5000000000000000  0.8333333333333357
 -0.0000000000000000 -0.0000000000000000  0.1664868896189971
  0.5000000000000000  0.0000000000000000  0.9996193616000379
  0.0000000000000000  0.5000000000000000  0.0008507623157323
  0.5000000000000000  0.5000000000000000  0.1670216327206148
  0.0000000000000000  0.0000000000000000  0.4996450339460491
  0.5000000000000000  0.0000000000000000  0.3333333333333357
  0.0000000000000000  0.5000000000000000  0.3333333333333357
  0.5000000000000000  0.5000000000000000  0.5001797770476666
 -0.0000000000000000 -0.0000000000000000  0.8338300041585595
  0.5000000000000000  0.0000000000000000  0.6670473050666264
  0.0000000000000000  0.5000000000000000  0.6658159043509327
  0.5000000000000000  0.5000000000000000  0.8328366625081119
 
  0.00000000E+00  0.00000000E+00  0.00000000E+00
  0.00000000E+00  0.00000000E+00  0.00000000E+00
  0.00000000E+00  0.00000000E+00  0.00000000E+00
  0.00000000E+00  0.00000000E+00  0.00000000E+00
  0.00000000E+00  0.00000000E+00  0.00000000E+00
  0.00000000E+00  0.00000000E+00  0.00000000E+00
  0.00000000E+00  0.00000000E+00  0.00000000E+00
  0.00000000E+00  0.00000000E+00  0.00000000E+00
  0.00000000E+00  0.00000000E+00  0.00000000E+00
  0.00000000E+00  0.00000000E+00  0.00000000E+00
  0.00000000E+00  0.00000000E+00  0.00000000E+00
  0.00000000E+00  0.00000000E+00  0.00000000E+00
  0.00000000E+00  0.00000000E+00  0.00000000E+00
  0.00000000E+00  0.00000000E+00  0.00000000E+00
  0.00000000E+00  0.00000000E+00  0.00000000E+00
  0.00000000E+00  0.00000000E+00  0.00000000E+00
  0.00000000E+00  0.00000000E+00  0.00000000E+00
  0.00000000E+00  0.00000000E+00  0.00000000E+00
  0.00000000E+00  0.00000000E+00  0.00000000E+00
  0.00000000E+00  0.00000000E+00  0.00000000E+00
  0.00000000E+00  0.00000000E+00  0.00000000E+00
  0.00000000E+00  0.00000000E+00  0.00000000E+00
  0.00000000E+00  0.00000000E+00  0.00000000E+00
  0.00000000E+00  0.00000000E+00  0.00000000E+00
