Sr Pb  S                                
   1.00000000000000     
     6.0248003673540529    0.0000000000000000    0.0000000000000000
     0.0000000000000000    6.0248003673540529    0.0000000000000000
     0.0000000000000000    0.0000000000000000   18.1107546316942098
   Sr   Pb   S 
     4     8    12
Direct
  0.0000000000000000 -0.0000000000000000  0.9977953695597526
  0.0000000000000000  0.5000000000000000  0.1676883686630742
  0.5000000000000000 -0.0000000000000000  0.1676883686630742
  0.5000000000000000  0.5000000000000000  0.6666706847383350
  0.5000000000000000  0.5000000000000000  0.9999652890065795
 -0.0000000000000000 -0.0000000000000000  0.3336146106103210
  0.0000000000000000  0.5000000000000000  0.5002600333160810
  0.5000000000000000 -0.0000000000000000  0.5002600333160810
  0.5000000000000000  0.5000000000000000  0.3342372085126097
  0.0000000000000000 -0.0000000000000000  0.6658028939243315
 -0.0000000000000000  0.5000000000000000  0.8331498973114413
  0.5000000000000000 -0.0000000000000000  0.8331498973114413
  0.0000000000000000 -0.0000000000000000  0.1662269229670874
  0.5000000000000000 -0.0000000000000000  0.0000952444971648
  0.0000000000000000  0.5000000000000000  0.0000952444971648
  0.5000000000000000  0.5000000000000000  0.1670776259844385
  0.0000000000000000 -0.0000000000000000  0.5003162590647154
  0.5000000000000000  0.0000000000000000  0.3334037071654763
 -0.0000000000000000  0.5000000000000000  0.3334037071654763
  0.5000000000000000  0.5000000000000000  0.5003697040014811
  0.0000000000000000 -0.0000000000000000  0.8331182205227594
  0.5000000000000000 -0.0000000000000000  0.6663162139618367
  0.0000000000000000  0.5000000000000000  0.6663162139618367
  0.5000000000000000  0.5000000000000000  0.8329782812774685
 
  0.00000000E+00  0.00000000E+00  0.00000000E+00
  0.00000000E+00  0.00000000E+00  0.00000000E+00
  0.00000000E+00  0.00000000E+00  0.00000000E+00
  0.00000000E+00  0.00000000E+00  0.00000000E+00
  0.00000000E+00  0.00000000E+00  0.00000000E+00
  0.00000000E+00  0.00000000E+00  0.00000000E+00
  0.00000000E+00  0.00000000E+00  0.00000000E+00
  0.00000000E+00  0.00000000E+00  0.00000000E+00
  0.00000000E+00  0.00000000E+00  0.00000000E+00
  0.00000000E+00  0.00000000E+00  0.00000000E+00
  0.00000000E+00  0.00000000E+00  0.00000000E+00
  0.00000000E+00  0.00000000E+00  0.00000000E+00
  0.00000000E+00  0.00000000E+00  0.00000000E+00
  0.00000000E+00  0.00000000E+00  0.00000000E+00
  0.00000000E+00  0.00000000E+00  0.00000000E+00
  0.00000000E+00  0.00000000E+00  0.00000000E+00
  0.00000000E+00  0.00000000E+00  0.00000000E+00
  0.00000000E+00  0.00000000E+00  0.00000000E+00
  0.00000000E+00  0.00000000E+00  0.00000000E+00
  0.00000000E+00  0.00000000E+00  0.00000000E+00
  0.00000000E+00  0.00000000E+00  0.00000000E+00
  0.00000000E+00  0.00000000E+00  0.00000000E+00
  0.00000000E+00  0.00000000E+00  0.00000000E+00
  0.00000000E+00  0.00000000E+00  0.00000000E+00
