Sr Pb  S                                
   1.00000000000000     
     6.0307646113885012    0.0000000000000000    0.0000000000000000
     0.0000000000000000    6.0334979060914034    0.0000000000000000
     0.0000000000000000    0.0000000000000000   18.1431962916762615
   Sr   Pb   S 
     6     6    12
Direct
 -0.0000000000000000  0.0000000000000000  0.0004879212825396
  0.0000000000000000  0.5000000000000000  0.1670707063537286
 -0.0000000000000000 -0.0000000000000000  0.3329292936462713
  0.0000000000000000  0.5000000000000000  0.4995120787174604
  0.5000000000000000 -0.0000000000000000  0.8334084785645767
  0.5000000000000000  0.5000000000000000  0.6665915214354233
  0.5000000000000000 -0.0000000000000000  0.1666705816375722
  0.5000000000000000  0.5000000000000000  0.0000126539956289
  0.5000000000000000  0.0000000000000000  0.4999873460043711
  0.5000000000000000  0.5000000000000000  0.3333294183624280
 -0.0000000000000000  0.0000000000000000  0.6665764416012991
  0.0000000000000000  0.5000000000000000  0.8334235583987009
  0.0000000000000000  0.0000000000000000  0.1666994918556267
  0.5000000000000000 -0.0000000000000000  0.9995018821998719
 -0.0000000000000000  0.5000000000000000  0.0006466219190241
  0.5000000000000000  0.5000000000000000  0.1666712370075363
  0.0000000000000000  0.0000000000000000  0.4993533780809758
  0.5000000000000000 -0.0000000000000000  0.3333287629924638
  0.0000000000000000  0.5000000000000000  0.3333005081443733
  0.5000000000000000  0.5000000000000000  0.5004981178001281
  0.0000000000000000  0.0000000000000000  0.8340510068318747
  0.5000000000000000  0.0000000000000000  0.6671597453003862
 -0.0000000000000000  0.5000000000000000  0.6659489931681253
  0.5000000000000000  0.5000000000000000  0.8328402546996138
 
  0.00000000E+00  0.00000000E+00  0.00000000E+00
  0.00000000E+00  0.00000000E+00  0.00000000E+00
  0.00000000E+00  0.00000000E+00  0.00000000E+00
  0.00000000E+00  0.00000000E+00  0.00000000E+00
  0.00000000E+00  0.00000000E+00  0.00000000E+00
  0.00000000E+00  0.00000000E+00  0.00000000E+00
  0.00000000E+00  0.00000000E+00  0.00000000E+00
  0.00000000E+00  0.00000000E+00  0.00000000E+00
  0.00000000E+00  0.00000000E+00  0.00000000E+00
  0.00000000E+00  0.00000000E+00  0.00000000E+00
  0.00000000E+00  0.00000000E+00  0.00000000E+00
  0.00000000E+00  0.00000000E+00  0.00000000E+00
  0.00000000E+00  0.00000000E+00  0.00000000E+00
  0.00000000E+00  0.00000000E+00  0.00000000E+00
  0.00000000E+00  0.00000000E+00  0.00000000E+00
  0.00000000E+00  0.00000000E+00  0.00000000E+00
  0.00000000E+00  0.00000000E+00  0.00000000E+00
  0.00000000E+00  0.00000000E+00  0.00000000E+00
  0.00000000E+00  0.00000000E+00  0.00000000E+00
  0.00000000E+00  0.00000000E+00  0.00000000E+00
  0.00000000E+00  0.00000000E+00  0.00000000E+00
  0.00000000E+00  0.00000000E+00  0.00000000E+00
  0.00000000E+00  0.00000000E+00  0.00000000E+00
  0.00000000E+00  0.00000000E+00  0.00000000E+00
