Sr Pb  S                                
   1.00000000000000     
     6.0291816722004103    0.0000000000000000    0.0000000000000000
     0.0000000000000000    6.0299103397066247    0.0000000000000000
     0.0000000000000000    0.0000000000000000   18.1078392356790978
   Sr   Pb   S 
     5     7    12
Direct
  0.0000000000000000  0.0000000000000000  0.9988946859399239
  0.0000000000000000  0.5000000000000000  0.1675070788157639
  0.5000000000000000  0.0000000000000000  0.1678126872337322
  0.0000000000000000  0.5000000000000000  0.5000242033317909
  0.0000000000000000  0.5000000000000000  0.8319760820612666
  0.5000000000000000  0.5000000000000000  0.9999648232287245
  0.0000000000000000  0.0000000000000000  0.3336370405711686
  0.5000000000000000  0.0000000000000000  0.5006450842842459
  0.5000000000000000  0.5000000000000000  0.3340468301762963
  0.0000000000000000  0.0000000000000000  0.6661624785419262
  0.5000000000000000  0.0000000000000000  0.8332712937878720
  0.5000000000000000  0.5000000000000000  0.6666837664189315
  0.0000000000000000  0.0000000000000000  0.1662816016729385
  0.5000000000000000  0.0000000000000000  0.0002721908023340
  0.0000000000000000  0.5000000000000000  0.9996750109488437
  0.5000000000000000  0.5000000000000000  0.1669995223400765
  0.0000000000000000  0.0000000000000000  0.5002502456705720
  0.5000000000000000  0.0000000000000000  0.3334319553911402
  0.0000000000000000  0.5000000000000000  0.3335532601946066
  0.5000000000000000  0.5000000000000000  0.5000094457821666
  0.0000000000000000  0.0000000000000000  0.8333396684724149
  0.5000000000000000  0.0000000000000000  0.6664093244716484
  0.0000000000000000  0.5000000000000000  0.6663435209632290
  0.5000000000000000  0.5000000000000000  0.8328081988983878
 
  0.00000000E+00  0.00000000E+00  0.00000000E+00
  0.00000000E+00  0.00000000E+00  0.00000000E+00
  0.00000000E+00  0.00000000E+00  0.00000000E+00
  0.00000000E+00  0.00000000E+00  0.00000000E+00
  0.00000000E+00  0.00000000E+00  0.00000000E+00
  0.00000000E+00  0.00000000E+00  0.00000000E+00
  0.00000000E+00  0.00000000E+00  0.00000000E+00
  0.00000000E+00  0.00000000E+00  0.00000000E+00
  0.00000000E+00  0.00000000E+00  0.00000000E+00
  0.00000000E+00  0.00000000E+00  0.00000000E+00
  0.00000000E+00  0.00000000E+00  0.00000000E+00
  0.00000000E+00  0.00000000E+00  0.00000000E+00
  0.00000000E+00  0.00000000E+00  0.00000000E+00
  0.00000000E+00  0.00000000E+00  0.00000000E+00
  0.00000000E+00  0.00000000E+00  0.00000000E+00
  0.00000000E+00  0.00000000E+00  0.00000000E+00
  0.00000000E+00  0.00000000E+00  0.00000000E+00
  0.00000000E+00  0.00000000E+00  0.00000000E+00
  0.00000000E+00  0.00000000E+00  0.00000000E+00
  0.00000000E+00  0.00000000E+00  0.00000000E+00
  0.00000000E+00  0.00000000E+00  0.00000000E+00
  0.00000000E+00  0.00000000E+00  0.00000000E+00
  0.00000000E+00  0.00000000E+00  0.00000000E+00
  0.00000000E+00  0.00000000E+00  0.00000000E+00
