Sr Pb  S                                
   1.00000000000000     
     6.0250630740504585    0.0000000000000000    0.0000000000000000
     0.0000000000000000    6.0248676115081929    0.0000000000000000
     0.0000000000000000    0.0000000000000000   18.1022962272658070
   Sr   Pb   S 
     4     8    12
Direct
  0.0000000000000000  0.0000000000000000  0.9977074845520159
 -0.0000000000000000  0.5000000000000000  0.1678996909265928
  0.5000000000000000  0.0000000000000000  0.1674924406147848
  0.0000000000000000  0.5000000000000000  0.4999721981177924
  0.5000000000000000  0.5000000000000000  0.9998570067373251
  0.0000000000000000 -0.0000000000000000  0.3334028909727407
  0.5000000000000000 -0.0000000000000000  0.5007995776174949
  0.5000000000000000  0.5000000000000000  0.3341970301133534
 -0.0000000000000000 -0.0000000000000000  0.6662146153549772
  0.0000000000000000  0.5000000000000000  0.8328924743394943
  0.5000000000000000 -0.0000000000000000  0.8329235396059178
  0.5000000000000000  0.5000000000000000  0.6671812177479394
 -0.0000000000000000 -0.0000000000000000  0.1660985030980055
  0.5000000000000000 -0.0000000000000000  0.9998787995861004
 -0.0000000000000000  0.5000000000000000  0.0001135784237694
  0.5000000000000000  0.5000000000000000  0.1668912580798468
 -0.0000000000000000 -0.0000000000000000  0.5004449419118820
  0.5000000000000000 -0.0000000000000000  0.3333224965576976
 -0.0000000000000000  0.5000000000000000  0.3336719378127549
  0.5000000000000000  0.5000000000000000  0.5001497605789332
  0.0000000000000000 -0.0000000000000000  0.8330165112806901
  0.5000000000000000  0.0000000000000000  0.6664600489046907
 -0.0000000000000000  0.5000000000000000  0.6663866825775261
  0.5000000000000000  0.5000000000000000  0.8330253144876680
 
  0.00000000E+00  0.00000000E+00  0.00000000E+00
  0.00000000E+00  0.00000000E+00  0.00000000E+00
  0.00000000E+00  0.00000000E+00  0.00000000E+00
  0.00000000E+00  0.00000000E+00  0.00000000E+00
  0.00000000E+00  0.00000000E+00  0.00000000E+00
  0.00000000E+00  0.00000000E+00  0.00000000E+00
  0.00000000E+00  0.00000000E+00  0.00000000E+00
  0.00000000E+00  0.00000000E+00  0.00000000E+00
  0.00000000E+00  0.00000000E+00  0.00000000E+00
  0.00000000E+00  0.00000000E+00  0.00000000E+00
  0.00000000E+00  0.00000000E+00  0.00000000E+00
  0.00000000E+00  0.00000000E+00  0.00000000E+00
  0.00000000E+00  0.00000000E+00  0.00000000E+00
  0.00000000E+00  0.00000000E+00  0.00000000E+00
  0.00000000E+00  0.00000000E+00  0.00000000E+00
  0.00000000E+00  0.00000000E+00  0.00000000E+00
  0.00000000E+00  0.00000000E+00  0.00000000E+00
  0.00000000E+00  0.00000000E+00  0.00000000E+00
  0.00000000E+00  0.00000000E+00  0.00000000E+00
  0.00000000E+00  0.00000000E+00  0.00000000E+00
  0.00000000E+00  0.00000000E+00  0.00000000E+00
  0.00000000E+00  0.00000000E+00  0.00000000E+00
  0.00000000E+00  0.00000000E+00  0.00000000E+00
  0.00000000E+00  0.00000000E+00  0.00000000E+00
