Sr  S Pb                                
   1.00000000000000     
     6.0369750079712956    0.0000000000000000    0.0000000000000000
     0.0000000000000000    6.0385985485397864    0.0000000000000000
     0.0000000000000000    0.0000000000000000   18.1549198304684012
   Sr   S    Pb
     7    12     5
Direct
  0.0000000000000000  0.0000000000000000  0.9994833443028420
  0.0000000000000000  0.5000000000000000  0.1682994756371582
  0.5000000000000000  0.0000000000000000  0.1668315893274559
  0.5000000000000000  0.5000000000000000  0.9987970530248181
  0.0000000000000000  0.0000000000000000  0.3343348860926496
  0.0000000000000000  0.5000000000000000  0.5011602448518616
  0.5000000000000000  0.0000000000000000  0.8312312989621914
  0.0000000000000000  0.0000000000000000  0.1671682859441137
  0.5000000000000000  0.0000000000000000  0.9993272679570310
  0.0000000000000000  0.5000000000000000  0.0005442960747167
  0.5000000000000000  0.5000000000000000  0.1662466244832937
  0.0000000000000000  0.0000000000000000  0.4998116161297810
  0.5000000000000000  0.0000000000000000  0.3331380635275175
  0.0000000000000000  0.5000000000000000  0.3341176518365848
  0.5000000000000000  0.5000000000000000  0.5005075736121205
  0.0000000000000000  0.0000000000000000  0.8333396629171256
  0.5000000000000000  0.0000000000000000  0.6665242757123391
  0.0000000000000000  0.5000000000000000  0.6663278087069252
  0.5000000000000000  0.5000000000000000  0.8331752826252541
  0.5000000000000000  0.0000000000000000  0.4999843153137157
  0.5000000000000000  0.5000000000000000  0.3335277715725197
  0.0000000000000000  0.0000000000000000  0.6666017110816936
  0.0000000000000000  0.5000000000000000  0.8333829662060007
  0.5000000000000000  0.5000000000000000  0.6661369341002971
 
  0.00000000E+00  0.00000000E+00  0.00000000E+00
  0.00000000E+00  0.00000000E+00  0.00000000E+00
  0.00000000E+00  0.00000000E+00  0.00000000E+00
  0.00000000E+00  0.00000000E+00  0.00000000E+00
  0.00000000E+00  0.00000000E+00  0.00000000E+00
  0.00000000E+00  0.00000000E+00  0.00000000E+00
  0.00000000E+00  0.00000000E+00  0.00000000E+00
  0.00000000E+00  0.00000000E+00  0.00000000E+00
  0.00000000E+00  0.00000000E+00  0.00000000E+00
  0.00000000E+00  0.00000000E+00  0.00000000E+00
  0.00000000E+00  0.00000000E+00  0.00000000E+00
  0.00000000E+00  0.00000000E+00  0.00000000E+00
  0.00000000E+00  0.00000000E+00  0.00000000E+00
  0.00000000E+00  0.00000000E+00  0.00000000E+00
  0.00000000E+00  0.00000000E+00  0.00000000E+00
  0.00000000E+00  0.00000000E+00  0.00000000E+00
  0.00000000E+00  0.00000000E+00  0.00000000E+00
  0.00000000E+00  0.00000000E+00  0.00000000E+00
  0.00000000E+00  0.00000000E+00  0.00000000E+00
  0.00000000E+00  0.00000000E+00  0.00000000E+00
  0.00000000E+00  0.00000000E+00  0.00000000E+00
  0.00000000E+00  0.00000000E+00  0.00000000E+00
  0.00000000E+00  0.00000000E+00  0.00000000E+00
  0.00000000E+00  0.00000000E+00  0.00000000E+00
