Sr  S Pb                                
   1.00000000000000     
     6.0439732883919222    0.0000000000000000    0.0000000000000000
     0.0000000000000000    6.0439732883919222   -0.0000000000000000
     0.0000000000000000   -0.0000000000000000   18.1450958121537376
   Sr   S    Pb
     8    12     4
Direct
 -0.0000000000000000  0.0000000000000000  0.9981846885682067
 -0.0000000000000000  0.5000000000000000  0.1666666666666643
  0.5000000000000000  0.0000000000000000  0.1666666666666643
  0.5000000000000000  0.5000000000000000  0.9981846885682067
  0.0000000000000000 -0.0000000000000000  0.3351486447651293
  0.5000000000000000  0.5000000000000000  0.3351486447651293
  0.0000000000000000  0.0000000000000000  0.6666666666666643
  0.5000000000000000  0.5000000000000000  0.6666666666666643
 -0.0000000000000000  0.0000000000000000  0.1666666666666643
  0.5000000000000000  0.0000000000000000  0.9998322141717240
  0.0000000000000000  0.5000000000000000  0.9998322141717240
  0.5000000000000000  0.5000000000000000  0.1666666666666643
 -0.0000000000000000  0.0000000000000000  0.5003506173887698
  0.5000000000000000 -0.0000000000000000  0.3335011191616118
 -0.0000000000000000  0.5000000000000000  0.3335011191616118
  0.5000000000000000  0.5000000000000000  0.5003506173887698
  0.0000000000000000 -0.0000000000000000  0.8329827159445659
  0.5000000000000000  0.0000000000000000  0.6666666666666643
  0.0000000000000000  0.5000000000000000  0.6666666666666643
  0.5000000000000000  0.5000000000000000  0.8329827159445659
 -0.0000000000000000  0.5000000000000000  0.5002807593900235
  0.5000000000000000 -0.0000000000000000  0.5002807593900235
  0.0000000000000000  0.5000000000000000  0.8330525739433122
  0.5000000000000000  0.0000000000000000  0.8330525739433122
 
  0.00000000E+00  0.00000000E+00  0.00000000E+00
  0.00000000E+00  0.00000000E+00  0.00000000E+00
  0.00000000E+00  0.00000000E+00  0.00000000E+00
  0.00000000E+00  0.00000000E+00  0.00000000E+00
  0.00000000E+00  0.00000000E+00  0.00000000E+00
  0.00000000E+00  0.00000000E+00  0.00000000E+00
  0.00000000E+00  0.00000000E+00  0.00000000E+00
  0.00000000E+00  0.00000000E+00  0.00000000E+00
  0.00000000E+00  0.00000000E+00  0.00000000E+00
  0.00000000E+00  0.00000000E+00  0.00000000E+00
  0.00000000E+00  0.00000000E+00  0.00000000E+00
  0.00000000E+00  0.00000000E+00  0.00000000E+00
  0.00000000E+00  0.00000000E+00  0.00000000E+00
  0.00000000E+00  0.00000000E+00  0.00000000E+00
  0.00000000E+00  0.00000000E+00  0.00000000E+00
  0.00000000E+00  0.00000000E+00  0.00000000E+00
  0.00000000E+00  0.00000000E+00  0.00000000E+00
  0.00000000E+00  0.00000000E+00  0.00000000E+00
  0.00000000E+00  0.00000000E+00  0.00000000E+00
  0.00000000E+00  0.00000000E+00  0.00000000E+00
  0.00000000E+00  0.00000000E+00  0.00000000E+00
  0.00000000E+00  0.00000000E+00  0.00000000E+00
  0.00000000E+00  0.00000000E+00  0.00000000E+00
  0.00000000E+00  0.00000000E+00  0.00000000E+00
