Sr Pb  S                                
   1.00000000000000     
     6.0334829839824300    0.0000000000000000    0.0000000000000000
     0.0000000000000000    6.0334829839824300    0.0000000000000000
     0.0000000000000000    0.0000000000000000   18.1301945094778496
   Sr   Pb   S 
     6     6    12
Direct
  0.0000000000000000  0.0000000000000000  0.9992750066379752
  0.0000000000000000  0.5000000000000000  0.1673270775802066
  0.5000000000000000  0.0000000000000000  0.1660062557531220
  0.0000000000000000  0.0000000000000000  0.3340583266953604
  0.0000000000000000  0.5000000000000000  0.5010608542065506
  0.5000000000000000  0.0000000000000000  0.8322724791267851
  0.5000000000000000  0.5000000000000000  0.9996271497047434
  0.5000000000000000  0.0000000000000000  0.5000036875440586
  0.5000000000000000  0.5000000000000000  0.3337061836285923
  0.0000000000000000  0.0000000000000000  0.6666666666666643
  0.0000000000000000  0.5000000000000000  0.8333296457892772
  0.5000000000000000  0.5000000000000000  0.6666666666666643
  0.0000000000000000  0.0000000000000000  0.1666666666666643
  0.5000000000000000  0.0000000000000000  0.9994010099647649
  0.0000000000000000  0.5000000000000000  0.0002908162805290
  0.5000000000000000  0.5000000000000000  0.1666666666666643
  0.0000000000000000  0.0000000000000000  0.4998082359974424
  0.5000000000000000  0.0000000000000000  0.3330425170528067
  0.0000000000000000  0.5000000000000000  0.3339323233685708
  0.5000000000000000  0.5000000000000000  0.5004216833198317
  0.0000000000000000  0.0000000000000000  0.8335250973358934
  0.5000000000000000  0.0000000000000000  0.6667735348721708
  0.0000000000000000  0.5000000000000000  0.6665597984611578
  0.5000000000000000  0.5000000000000000  0.8329116500135040
 
  0.00000000E+00  0.00000000E+00  0.00000000E+00
  0.00000000E+00  0.00000000E+00  0.00000000E+00
  0.00000000E+00  0.00000000E+00  0.00000000E+00
  0.00000000E+00  0.00000000E+00  0.00000000E+00
  0.00000000E+00  0.00000000E+00  0.00000000E+00
  0.00000000E+00  0.00000000E+00  0.00000000E+00
  0.00000000E+00  0.00000000E+00  0.00000000E+00
  0.00000000E+00  0.00000000E+00  0.00000000E+00
  0.00000000E+00  0.00000000E+00  0.00000000E+00
  0.00000000E+00  0.00000000E+00  0.00000000E+00
  0.00000000E+00  0.00000000E+00  0.00000000E+00
  0.00000000E+00  0.00000000E+00  0.00000000E+00
  0.00000000E+00  0.00000000E+00  0.00000000E+00
  0.00000000E+00  0.00000000E+00  0.00000000E+00
  0.00000000E+00  0.00000000E+00  0.00000000E+00
  0.00000000E+00  0.00000000E+00  0.00000000E+00
  0.00000000E+00  0.00000000E+00  0.00000000E+00
  0.00000000E+00  0.00000000E+00  0.00000000E+00
  0.00000000E+00  0.00000000E+00  0.00000000E+00
  0.00000000E+00  0.00000000E+00  0.00000000E+00
  0.00000000E+00  0.00000000E+00  0.00000000E+00
  0.00000000E+00  0.00000000E+00  0.00000000E+00
  0.00000000E+00  0.00000000E+00  0.00000000E+00
  0.00000000E+00  0.00000000E+00  0.00000000E+00
