Sr  S Pb                                
   1.00000000000000     
     6.0477345536658973    0.0000000000000000    0.0000000000000000
     0.0000000000000000    6.0477345536658973   -0.0000000000000000
     0.0000000000000000    0.0000000000000000   18.1721614599250820
   Sr   S    Pb
     9    12     3
Direct
 -0.0000000000000000 -0.0000000000000000  0.9985790451477968
 -0.0000000000000000  0.5000000000000000  0.1674930304182745
  0.5000000000000000  0.0000000000000000  0.1674930304182745
  0.5000000000000000  0.5000000000000000  0.9980932035500644
 -0.0000000000000000 -0.0000000000000000  0.3333333333333357
 -0.0000000000000000  0.5000000000000000  0.4991736362483907
  0.5000000000000000 -0.0000000000000000  0.4991736362483907
  0.0000000000000000  0.0000000000000000  0.6680876215188675
  0.5000000000000000  0.5000000000000000  0.6685734631165999
  0.0000000000000000 -0.0000000000000000  0.1667892719544970
  0.5000000000000000 -0.0000000000000000  0.0002086658634010
  0.0000000000000000  0.5000000000000000  0.0002086658634010
  0.5000000000000000  0.5000000000000000  0.1657308459811421
  0.0000000000000000 -0.0000000000000000  0.4998773947121681
  0.5000000000000000 -0.0000000000000000  0.3333333333333357
 -0.0000000000000000  0.5000000000000000  0.3333333333333357
  0.5000000000000000  0.5000000000000000  0.5009358206855217
 -0.0000000000000000 -0.0000000000000000  0.8333333333333357
  0.5000000000000000  0.0000000000000000  0.6664580008032633
 -0.0000000000000000  0.5000000000000000  0.6664580008032633
  0.5000000000000000  0.5000000000000000  0.8333333333333357
  0.5000000000000000  0.5000000000000000  0.3333333333333357
  0.0000000000000000  0.5000000000000000  0.8333333333333357
  0.5000000000000000  0.0000000000000000  0.8333333333333357
 
  0.00000000E+00  0.00000000E+00  0.00000000E+00
  0.00000000E+00  0.00000000E+00  0.00000000E+00
  0.00000000E+00  0.00000000E+00  0.00000000E+00
  0.00000000E+00  0.00000000E+00  0.00000000E+00
  0.00000000E+00  0.00000000E+00  0.00000000E+00
  0.00000000E+00  0.00000000E+00  0.00000000E+00
  0.00000000E+00  0.00000000E+00  0.00000000E+00
  0.00000000E+00  0.00000000E+00  0.00000000E+00
  0.00000000E+00  0.00000000E+00  0.00000000E+00
  0.00000000E+00  0.00000000E+00  0.00000000E+00
  0.00000000E+00  0.00000000E+00  0.00000000E+00
  0.00000000E+00  0.00000000E+00  0.00000000E+00
  0.00000000E+00  0.00000000E+00  0.00000000E+00
  0.00000000E+00  0.00000000E+00  0.00000000E+00
  0.00000000E+00  0.00000000E+00  0.00000000E+00
  0.00000000E+00  0.00000000E+00  0.00000000E+00
  0.00000000E+00  0.00000000E+00  0.00000000E+00
  0.00000000E+00  0.00000000E+00  0.00000000E+00
  0.00000000E+00  0.00000000E+00  0.00000000E+00
  0.00000000E+00  0.00000000E+00  0.00000000E+00
  0.00000000E+00  0.00000000E+00  0.00000000E+00
  0.00000000E+00  0.00000000E+00  0.00000000E+00
  0.00000000E+00  0.00000000E+00  0.00000000E+00
  0.00000000E+00  0.00000000E+00  0.00000000E+00
