Sr Pb  S                                
   1.00000000000000     
     6.0251665203489289    0.0000000000000000    0.0000000000000000
     0.0000000000000000    6.0259210464244601    0.0000000000000000
     0.0000000000000000    0.0000000000000000   18.0979341930070099
   Sr   Pb   S 
     4     8    12
Direct
  0.0000000000000000  0.0000000000000000  0.9988265279600569
 -0.0000000000000000  0.5000000000000000  0.1679804918391971
  0.0000000000000000  0.5000000000000000  0.4999212603748792
  0.5000000000000000  0.0000000000000000  0.5001317746364542
  0.5000000000000000 -0.0000000000000000  0.1662937853309844
  0.5000000000000000  0.5000000000000000  0.9999343885633863
 -0.0000000000000000  0.0000000000000000  0.3329480682470438
  0.5000000000000000  0.5000000000000000  0.3333045811301673
  0.0000000000000000  0.0000000000000000  0.6668839497530780
  0.0000000000000000  0.5000000000000000  0.8332931988383653
  0.5000000000000000 -0.0000000000000000  0.8330085521511937
  0.5000000000000000  0.5000000000000000  0.6673886832020629
  0.0000000000000000 -0.0000000000000000  0.1661363878681231
  0.5000000000000000 -0.0000000000000000  0.9997418058674841
  0.0000000000000000  0.5000000000000000  0.0003988215105466
  0.5000000000000000  0.5000000000000000  0.1667253082774718
 -0.0000000000000000 -0.0000000000000000  0.5001927254100282
  0.5000000000000000  0.0000000000000000  0.3335073128283353
  0.0000000000000000  0.5000000000000000  0.3335030327099703
  0.5000000000000000  0.5000000000000000  0.5000578120608051
 -0.0000000000000000 -0.0000000000000000  0.8333435944246150
  0.5000000000000000 -0.0000000000000000  0.6666760639635960
 -0.0000000000000000  0.5000000000000000  0.6665788476838014
  0.5000000000000000  0.5000000000000000  0.8332230253683438
 
  0.00000000E+00  0.00000000E+00  0.00000000E+00
  0.00000000E+00  0.00000000E+00  0.00000000E+00
  0.00000000E+00  0.00000000E+00  0.00000000E+00
  0.00000000E+00  0.00000000E+00  0.00000000E+00
  0.00000000E+00  0.00000000E+00  0.00000000E+00
  0.00000000E+00  0.00000000E+00  0.00000000E+00
  0.00000000E+00  0.00000000E+00  0.00000000E+00
  0.00000000E+00  0.00000000E+00  0.00000000E+00
  0.00000000E+00  0.00000000E+00  0.00000000E+00
  0.00000000E+00  0.00000000E+00  0.00000000E+00
  0.00000000E+00  0.00000000E+00  0.00000000E+00
  0.00000000E+00  0.00000000E+00  0.00000000E+00
  0.00000000E+00  0.00000000E+00  0.00000000E+00
  0.00000000E+00  0.00000000E+00  0.00000000E+00
  0.00000000E+00  0.00000000E+00  0.00000000E+00
  0.00000000E+00  0.00000000E+00  0.00000000E+00
  0.00000000E+00  0.00000000E+00  0.00000000E+00
  0.00000000E+00  0.00000000E+00  0.00000000E+00
  0.00000000E+00  0.00000000E+00  0.00000000E+00
  0.00000000E+00  0.00000000E+00  0.00000000E+00
  0.00000000E+00  0.00000000E+00  0.00000000E+00
  0.00000000E+00  0.00000000E+00  0.00000000E+00
  0.00000000E+00  0.00000000E+00  0.00000000E+00
  0.00000000E+00  0.00000000E+00  0.00000000E+00
