Sr  S Pb                                
   1.00000000000000     
     6.0425994573680564   -0.0000000000000000    0.0000000000000000
     0.0000000000000000    6.0425994573680564    0.0000000000000000
    -0.0000000000000000    0.0000000000000000   18.1630722301841843
   Sr   S    Pb
     8    12     4
Direct
  0.0000000000000000  0.0000000000000000  0.9991713943343552
  0.0000000000000000  0.5000000000000000  0.1666666666666643
  0.5000000000000000 -0.0000000000000000  0.1666666666666643
  0.5000000000000000  0.5000000000000000  0.9991713943343552
  0.0000000000000000 -0.0000000000000000  0.3341619389989807
 -0.0000000000000000  0.5000000000000000  0.5020913271426202
  0.5000000000000000  0.5000000000000000  0.3341619389989807
 -0.0000000000000000  0.5000000000000000  0.8312420061907155
 -0.0000000000000000  0.0000000000000000  0.1666666666666643
  0.5000000000000000 -0.0000000000000000  0.0001387380834078
  0.0000000000000000  0.5000000000000000  0.9992246680754787
  0.5000000000000000  0.5000000000000000  0.1666666666666643
  0.0000000000000000 -0.0000000000000000  0.5001339166986316
  0.5000000000000000  0.0000000000000000  0.3331945952499280
 -0.0000000000000000  0.5000000000000000  0.3341086652578571
  0.5000000000000000  0.5000000000000000  0.5001339166986316
 -0.0000000000000000  0.0000000000000000  0.8331994166347041
  0.5000000000000000  0.0000000000000000  0.6666666666666643
 -0.0000000000000000  0.5000000000000000  0.6666666666666643
  0.5000000000000000  0.5000000000000000  0.8331994166347041
  0.5000000000000000  0.0000000000000000  0.5003777553026983
 -0.0000000000000000  0.0000000000000000  0.6666666666666643
  0.5000000000000000 -0.0000000000000000  0.8329555780306374
  0.5000000000000000  0.5000000000000000  0.6666666666666643
 
  0.00000000E+00  0.00000000E+00  0.00000000E+00
  0.00000000E+00  0.00000000E+00  0.00000000E+00
  0.00000000E+00  0.00000000E+00  0.00000000E+00
  0.00000000E+00  0.00000000E+00  0.00000000E+00
  0.00000000E+00  0.00000000E+00  0.00000000E+00
  0.00000000E+00  0.00000000E+00  0.00000000E+00
  0.00000000E+00  0.00000000E+00  0.00000000E+00
  0.00000000E+00  0.00000000E+00  0.00000000E+00
  0.00000000E+00  0.00000000E+00  0.00000000E+00
  0.00000000E+00  0.00000000E+00  0.00000000E+00
  0.00000000E+00  0.00000000E+00  0.00000000E+00
  0.00000000E+00  0.00000000E+00  0.00000000E+00
  0.00000000E+00  0.00000000E+00  0.00000000E+00
  0.00000000E+00  0.00000000E+00  0.00000000E+00
  0.00000000E+00  0.00000000E+00  0.00000000E+00
  0.00000000E+00  0.00000000E+00  0.00000000E+00
  0.00000000E+00  0.00000000E+00  0.00000000E+00
  0.00000000E+00  0.00000000E+00  0.00000000E+00
  0.00000000E+00  0.00000000E+00  0.00000000E+00
  0.00000000E+00  0.00000000E+00  0.00000000E+00
  0.00000000E+00  0.00000000E+00  0.00000000E+00
  0.00000000E+00  0.00000000E+00  0.00000000E+00
  0.00000000E+00  0.00000000E+00  0.00000000E+00
  0.00000000E+00  0.00000000E+00  0.00000000E+00
