Sr  S Pb                                
   1.00000000000000     
     6.0343359401513519    0.0000000000000000    0.0000000000000000
     0.0000000000000000    6.0343359401513519    0.0000000000000000
     0.0000000000000000   -0.0000000000000000   18.1414269249579938
   Sr   S    Pb
     6    12     6
Direct
  0.0000000000000000 -0.0000000000000000  0.9982156530698114
 -0.0000000000000000  0.5000000000000000  0.1666666666666643
  0.5000000000000000  0.0000000000000000  0.1666666666666643
  0.5000000000000000  0.5000000000000000  0.9982156530698114
 -0.0000000000000000  0.0000000000000000  0.3351176802635243
  0.5000000000000000  0.5000000000000000  0.3351176802635243
 -0.0000000000000000  0.0000000000000000  0.1666666666666643
  0.5000000000000000 -0.0000000000000000  0.9996458274133317
  0.0000000000000000  0.5000000000000000  0.9996458274133317
  0.5000000000000000  0.5000000000000000  0.1666666666666643
 -0.0000000000000000 -0.0000000000000000  0.5003934335555782
  0.5000000000000000  0.0000000000000000  0.3336875059200044
 -0.0000000000000000  0.5000000000000000  0.3336875059200044
  0.5000000000000000  0.5000000000000000  0.5003934335555782
  0.0000000000000000  0.0000000000000000  0.8329398997777575
  0.5000000000000000  0.0000000000000000  0.6666666666666643
 -0.0000000000000000  0.5000000000000000  0.6666666666666643
  0.5000000000000000  0.5000000000000000  0.8329398997777575
  0.0000000000000000  0.5000000000000000  0.5009717614911404
  0.5000000000000000  0.0000000000000000  0.5009717614911404
 -0.0000000000000000 -0.0000000000000000  0.6666666666666643
 -0.0000000000000000  0.5000000000000000  0.8323615718421953
  0.5000000000000000 -0.0000000000000000  0.8323615718421953
  0.5000000000000000  0.5000000000000000  0.6666666666666643
 
  0.00000000E+00  0.00000000E+00  0.00000000E+00
  0.00000000E+00  0.00000000E+00  0.00000000E+00
  0.00000000E+00  0.00000000E+00  0.00000000E+00
  0.00000000E+00  0.00000000E+00  0.00000000E+00
  0.00000000E+00  0.00000000E+00  0.00000000E+00
  0.00000000E+00  0.00000000E+00  0.00000000E+00
  0.00000000E+00  0.00000000E+00  0.00000000E+00
  0.00000000E+00  0.00000000E+00  0.00000000E+00
  0.00000000E+00  0.00000000E+00  0.00000000E+00
  0.00000000E+00  0.00000000E+00  0.00000000E+00
  0.00000000E+00  0.00000000E+00  0.00000000E+00
  0.00000000E+00  0.00000000E+00  0.00000000E+00
  0.00000000E+00  0.00000000E+00  0.00000000E+00
  0.00000000E+00  0.00000000E+00  0.00000000E+00
  0.00000000E+00  0.00000000E+00  0.00000000E+00
  0.00000000E+00  0.00000000E+00  0.00000000E+00
  0.00000000E+00  0.00000000E+00  0.00000000E+00
  0.00000000E+00  0.00000000E+00  0.00000000E+00
  0.00000000E+00  0.00000000E+00  0.00000000E+00
  0.00000000E+00  0.00000000E+00  0.00000000E+00
  0.00000000E+00  0.00000000E+00  0.00000000E+00
  0.00000000E+00  0.00000000E+00  0.00000000E+00
  0.00000000E+00  0.00000000E+00  0.00000000E+00
  0.00000000E+00  0.00000000E+00  0.00000000E+00
