Sr  S Pb                                
   1.00000000000000     
     6.0329601865991016    0.0000000000000000    0.0000000000000000
     0.0000000000000000    6.0337405635253338    0.0000000000000000
     0.0000000000000000    0.0000000000000000   18.1396418251375877
   Sr   S    Pb
     6    12     6
Direct
  0.0000000000000000  0.0000000000000000  0.9980313878156772
  0.0000000000000000  0.5000000000000000  0.1686352788509868
  0.5000000000000000  0.0000000000000000  0.1684423090416411
  0.5000000000000000  0.5000000000000000  0.9982243576250230
  0.0000000000000000  0.5000000000000000  0.4989010386712627
  0.0000000000000000  0.0000000000000000  0.6677656279954015
  0.0000000000000000  0.0000000000000000  0.1663656900644832
  0.5000000000000000  0.0000000000000000  0.0000585001908774
  0.0000000000000000  0.5000000000000000  0.0003009766021812
  0.5000000000000000  0.5000000000000000  0.1666081664757868
  0.0000000000000000  0.0000000000000000  0.5007650631227748
  0.5000000000000000  0.0000000000000000  0.3333024913242150
  0.0000000000000000  0.5000000000000000  0.3335398934626178
  0.5000000000000000  0.5000000000000000  0.5003031991225410
  0.0000000000000000  0.0000000000000000  0.8331267732040535
  0.5000000000000000  0.0000000000000000  0.6663634675441233
  0.0000000000000000  0.5000000000000000  0.6659016035438895
  0.5000000000000000  0.5000000000000000  0.8333641753424562
  0.0000000000000000  0.0000000000000000  0.3338246041180662
  0.5000000000000000  0.0000000000000000  0.5009230961740673
  0.5000000000000000  0.5000000000000000  0.3333560887554390
  0.0000000000000000  0.5000000000000000  0.8328420625486054
  0.5000000000000000  0.0000000000000000  0.8333105779112321
  0.5000000000000000  0.5000000000000000  0.6657435704925970
 
  0.00000000E+00  0.00000000E+00  0.00000000E+00
  0.00000000E+00  0.00000000E+00  0.00000000E+00
  0.00000000E+00  0.00000000E+00  0.00000000E+00
  0.00000000E+00  0.00000000E+00  0.00000000E+00
  0.00000000E+00  0.00000000E+00  0.00000000E+00
  0.00000000E+00  0.00000000E+00  0.00000000E+00
  0.00000000E+00  0.00000000E+00  0.00000000E+00
  0.00000000E+00  0.00000000E+00  0.00000000E+00
  0.00000000E+00  0.00000000E+00  0.00000000E+00
  0.00000000E+00  0.00000000E+00  0.00000000E+00
  0.00000000E+00  0.00000000E+00  0.00000000E+00
  0.00000000E+00  0.00000000E+00  0.00000000E+00
  0.00000000E+00  0.00000000E+00  0.00000000E+00
  0.00000000E+00  0.00000000E+00  0.00000000E+00
  0.00000000E+00  0.00000000E+00  0.00000000E+00
  0.00000000E+00  0.00000000E+00  0.00000000E+00
  0.00000000E+00  0.00000000E+00  0.00000000E+00
  0.00000000E+00  0.00000000E+00  0.00000000E+00
  0.00000000E+00  0.00000000E+00  0.00000000E+00
  0.00000000E+00  0.00000000E+00  0.00000000E+00
  0.00000000E+00  0.00000000E+00  0.00000000E+00
  0.00000000E+00  0.00000000E+00  0.00000000E+00
  0.00000000E+00  0.00000000E+00  0.00000000E+00
  0.00000000E+00  0.00000000E+00  0.00000000E+00
