Sr Pb  S                                
   1.00000000000000     
     6.0387874347218933    0.0000000000000000    0.0000000000000000
     0.0000000000000000    6.0366749369282582    0.0000000000000000
     0.0000000000000000    0.0000000000000000   18.1521101369406637
   Sr   Pb   S 
     7     5    12
Direct
  0.0000000000000000  0.0000000000000000  0.9975006525233023
  0.0000000000000000  0.5000000000000000  0.1668283560182550
  0.5000000000000000  0.0000000000000000  0.1664672009297221
  0.0000000000000000  0.5000000000000000  0.4990019748637987
  0.5000000000000000  0.5000000000000000  0.3348133653154977
  0.0000000000000000  0.0000000000000000  0.6677654423077238
  0.5000000000000000  0.5000000000000000  0.6673647504479281
  0.5000000000000000  0.5000000000000000  0.0004490136407589
  0.0000000000000000  0.0000000000000000  0.3329585934080890
  0.5000000000000000  0.0000000000000000  0.5003241405387817
  0.0000000000000000  0.5000000000000000  0.8332016922879978
  0.5000000000000000  0.0000000000000000  0.8334165346841871
  0.0000000000000000  0.0000000000000000  0.1654870967534471
  0.5000000000000000  0.0000000000000000  0.0001172332914731
  0.0000000000000000  0.5000000000000000  0.0003437114373626
  0.5000000000000000  0.5000000000000000  0.1675011462700350
  0.0000000000000000  0.0000000000000000  0.5007015635052057
  0.5000000000000000  0.0000000000000000  0.3328761763605362
  0.0000000000000000  0.5000000000000000  0.3333486216688223
  0.5000000000000000  0.5000000000000000  0.5002283852117980
  0.0000000000000000  0.0000000000000000  0.8330571593868979
  0.5000000000000000  0.0000000000000000  0.6671088414001582
  0.0000000000000000  0.5000000000000000  0.6661709847354261
  0.5000000000000000  0.5000000000000000  0.8329673630128098
 
  0.00000000E+00  0.00000000E+00  0.00000000E+00
  0.00000000E+00  0.00000000E+00  0.00000000E+00
  0.00000000E+00  0.00000000E+00  0.00000000E+00
  0.00000000E+00  0.00000000E+00  0.00000000E+00
  0.00000000E+00  0.00000000E+00  0.00000000E+00
  0.00000000E+00  0.00000000E+00  0.00000000E+00
  0.00000000E+00  0.00000000E+00  0.00000000E+00
  0.00000000E+00  0.00000000E+00  0.00000000E+00
  0.00000000E+00  0.00000000E+00  0.00000000E+00
  0.00000000E+00  0.00000000E+00  0.00000000E+00
  0.00000000E+00  0.00000000E+00  0.00000000E+00
  0.00000000E+00  0.00000000E+00  0.00000000E+00
  0.00000000E+00  0.00000000E+00  0.00000000E+00
  0.00000000E+00  0.00000000E+00  0.00000000E+00
  0.00000000E+00  0.00000000E+00  0.00000000E+00
  0.00000000E+00  0.00000000E+00  0.00000000E+00
  0.00000000E+00  0.00000000E+00  0.00000000E+00
  0.00000000E+00  0.00000000E+00  0.00000000E+00
  0.00000000E+00  0.00000000E+00  0.00000000E+00
  0.00000000E+00  0.00000000E+00  0.00000000E+00
  0.00000000E+00  0.00000000E+00  0.00000000E+00
  0.00000000E+00  0.00000000E+00  0.00000000E+00
  0.00000000E+00  0.00000000E+00  0.00000000E+00
  0.00000000E+00  0.00000000E+00  0.00000000E+00
