Sr Pb  S                                
   1.00000000000000     
     6.0436930399485114    0.0000000000000000    0.0000000000000000
     0.0000000000000000    6.0436930399485114    0.0000000000000000
     0.0000000000000000   -0.0000000000000000   18.1476045150896468
   Sr   Pb   S 
     8     4    12
Direct
  0.0000000000000000 -0.0000000000000000  0.9997723410001046
 -0.0000000000000000  0.5000000000000000  0.1666666666666643
  0.5000000000000000 -0.0000000000000000  0.1666666666666643
 -0.0000000000000000  0.5000000000000000  0.5009350384109000
  0.5000000000000000  0.0000000000000000  0.5009350384109000
  0.5000000000000000  0.5000000000000000  0.3335609923332315
 -0.0000000000000000  0.5000000000000000  0.8323982949224357
  0.5000000000000000  0.0000000000000000  0.8323982949224357
  0.5000000000000000  0.5000000000000000  0.0000020361755502
  0.0000000000000000  0.0000000000000000  0.3333312971577855
  0.0000000000000000  0.0000000000000000  0.6665453682252964
  0.5000000000000000  0.5000000000000000  0.6667879651080322
 -0.0000000000000000  0.0000000000000000  0.1659015903310328
  0.5000000000000000  0.0000000000000000  0.9998623858369369
 -0.0000000000000000  0.5000000000000000  0.9998623858369369
  0.5000000000000000  0.5000000000000000  0.1674317430022958
 -0.0000000000000000 -0.0000000000000000  0.5005756739461337
  0.5000000000000000  0.0000000000000000  0.3334709474963989
  0.0000000000000000  0.5000000000000000  0.3334709474963989
  0.5000000000000000  0.5000000000000000  0.4996010510328359
  0.0000000000000000 -0.0000000000000000  0.8337322823005002
  0.5000000000000000  0.0000000000000000  0.6666666666666643
 -0.0000000000000000  0.5000000000000000  0.6666666666666643
  0.5000000000000000  0.5000000000000000  0.8327576593872020
 
  0.00000000E+00  0.00000000E+00  0.00000000E+00
  0.00000000E+00  0.00000000E+00  0.00000000E+00
  0.00000000E+00  0.00000000E+00  0.00000000E+00
  0.00000000E+00  0.00000000E+00  0.00000000E+00
  0.00000000E+00  0.00000000E+00  0.00000000E+00
  0.00000000E+00  0.00000000E+00  0.00000000E+00
  0.00000000E+00  0.00000000E+00  0.00000000E+00
  0.00000000E+00  0.00000000E+00  0.00000000E+00
  0.00000000E+00  0.00000000E+00  0.00000000E+00
  0.00000000E+00  0.00000000E+00  0.00000000E+00
  0.00000000E+00  0.00000000E+00  0.00000000E+00
  0.00000000E+00  0.00000000E+00  0.00000000E+00
  0.00000000E+00  0.00000000E+00  0.00000000E+00
  0.00000000E+00  0.00000000E+00  0.00000000E+00
  0.00000000E+00  0.00000000E+00  0.00000000E+00
  0.00000000E+00  0.00000000E+00  0.00000000E+00
  0.00000000E+00  0.00000000E+00  0.00000000E+00
  0.00000000E+00  0.00000000E+00  0.00000000E+00
  0.00000000E+00  0.00000000E+00  0.00000000E+00
  0.00000000E+00  0.00000000E+00  0.00000000E+00
  0.00000000E+00  0.00000000E+00  0.00000000E+00
  0.00000000E+00  0.00000000E+00  0.00000000E+00
  0.00000000E+00  0.00000000E+00  0.00000000E+00
  0.00000000E+00  0.00000000E+00  0.00000000E+00
