Sr Pb  S                                
   1.00000000000000     
     6.0311888499442894    0.0000000000000000    0.0000000000000000
     0.0000000000000000    6.0311888499442894   -0.0000000000000000
    -0.0000000000000000   -0.0000000000000000   18.0864295374216866
   Sr   Pb   S 
     5     7    12
Direct
  0.0000000000000000  0.0000000000000000  0.9998250811437679
  0.5000000000000000  0.5000000000000000  0.0002352520450475
  0.0000000000000000 -0.0000000000000000  0.3335082521895749
  0.5000000000000000  0.5000000000000000  0.3330980812882882
 -0.0000000000000000  0.0000000000000000  0.6666666666666643
 -0.0000000000000000  0.5000000000000000  0.1666666666666643
  0.5000000000000000  0.0000000000000000  0.1666666666666643
 -0.0000000000000000  0.5000000000000000  0.5003189759282136
  0.5000000000000000  0.0000000000000000  0.5003189759282136
 -0.0000000000000000  0.5000000000000000  0.8330143574051221
  0.5000000000000000 -0.0000000000000000  0.8330143574051221
  0.5000000000000000  0.5000000000000000  0.6666666666666643
 -0.0000000000000000 -0.0000000000000000  0.1666666666666643
  0.5000000000000000 -0.0000000000000000  0.9999017698673587
 -0.0000000000000000  0.5000000000000000  0.9999017698673587
  0.5000000000000000  0.5000000000000000  0.1666666666666643
 -0.0000000000000000  0.0000000000000000  0.5001311592932625
  0.5000000000000000 -0.0000000000000000  0.3334315634659770
  0.0000000000000000  0.5000000000000000  0.3334315634659770
  0.5000000000000000  0.5000000000000000  0.4998675550259746
  0.0000000000000000 -0.0000000000000000  0.8332021740400732
  0.5000000000000000 -0.0000000000000000  0.6666666666666643
  0.0000000000000000  0.5000000000000000  0.6666666666666643
  0.5000000000000000  0.5000000000000000  0.8334657783073612
 
  0.00000000E+00  0.00000000E+00  0.00000000E+00
  0.00000000E+00  0.00000000E+00  0.00000000E+00
  0.00000000E+00  0.00000000E+00  0.00000000E+00
  0.00000000E+00  0.00000000E+00  0.00000000E+00
  0.00000000E+00  0.00000000E+00  0.00000000E+00
  0.00000000E+00  0.00000000E+00  0.00000000E+00
  0.00000000E+00  0.00000000E+00  0.00000000E+00
  0.00000000E+00  0.00000000E+00  0.00000000E+00
  0.00000000E+00  0.00000000E+00  0.00000000E+00
  0.00000000E+00  0.00000000E+00  0.00000000E+00
  0.00000000E+00  0.00000000E+00  0.00000000E+00
  0.00000000E+00  0.00000000E+00  0.00000000E+00
  0.00000000E+00  0.00000000E+00  0.00000000E+00
  0.00000000E+00  0.00000000E+00  0.00000000E+00
  0.00000000E+00  0.00000000E+00  0.00000000E+00
  0.00000000E+00  0.00000000E+00  0.00000000E+00
  0.00000000E+00  0.00000000E+00  0.00000000E+00
  0.00000000E+00  0.00000000E+00  0.00000000E+00
  0.00000000E+00  0.00000000E+00  0.00000000E+00
  0.00000000E+00  0.00000000E+00  0.00000000E+00
  0.00000000E+00  0.00000000E+00  0.00000000E+00
  0.00000000E+00  0.00000000E+00  0.00000000E+00
  0.00000000E+00  0.00000000E+00  0.00000000E+00
  0.00000000E+00  0.00000000E+00  0.00000000E+00
