Sr Pb  S                                
   1.00000000000000     
     6.0237343561935566    0.0000000000000000    0.0000000000000000
     0.0000000000000000    6.0248850615206866    0.0000000000000000
     0.0000000000000000    0.0000000000000000   18.1055607703876191
   Sr   Pb   S 
     4     8    12
Direct
  0.0000000000000000 -0.0000000000000000  0.9989827800711062
  0.0000000000000000  0.5000000000000000  0.1663615342269389
  0.0000000000000000  0.0000000000000000  0.3329933474894461
  0.5000000000000000  0.0000000000000000  0.5013958358502624
  0.5000000000000000 -0.0000000000000000  0.1667603956095501
  0.5000000000000000  0.5000000000000000  0.9996644226504093
 -0.0000000000000000  0.5000000000000000  0.5002901569146551
  0.5000000000000000  0.5000000000000000  0.3336861455183304
 -0.0000000000000000 -0.0000000000000000  0.6668720118442762
  0.0000000000000000  0.5000000000000000  0.8327965406909076
  0.5000000000000000 -0.0000000000000000  0.8333869527816316
  0.5000000000000000  0.5000000000000000  0.6672481366169708
 -0.0000000000000000 -0.0000000000000000  0.1663957085952352
  0.5000000000000000  0.0000000000000000  0.9995127304998859
  0.0000000000000000  0.5000000000000000  0.9999344470224508
  0.5000000000000000  0.5000000000000000  0.1665502711237288
 -0.0000000000000000 -0.0000000000000000  0.4997808666573091
  0.5000000000000000 -0.0000000000000000  0.3340631741545467
 -0.0000000000000000  0.5000000000000000  0.3329009118082429
  0.5000000000000000  0.5000000000000000  0.5003643675061603
 -0.0000000000000000 -0.0000000000000000  0.8333161688211393
  0.5000000000000000 -0.0000000000000000  0.6668577402057083
  0.0000000000000000  0.5000000000000000  0.6667325761162366
  0.5000000000000000  0.5000000000000000  0.8331527772248561
 
  0.00000000E+00  0.00000000E+00  0.00000000E+00
  0.00000000E+00  0.00000000E+00  0.00000000E+00
  0.00000000E+00  0.00000000E+00  0.00000000E+00
  0.00000000E+00  0.00000000E+00  0.00000000E+00
  0.00000000E+00  0.00000000E+00  0.00000000E+00
  0.00000000E+00  0.00000000E+00  0.00000000E+00
  0.00000000E+00  0.00000000E+00  0.00000000E+00
  0.00000000E+00  0.00000000E+00  0.00000000E+00
  0.00000000E+00  0.00000000E+00  0.00000000E+00
  0.00000000E+00  0.00000000E+00  0.00000000E+00
  0.00000000E+00  0.00000000E+00  0.00000000E+00
  0.00000000E+00  0.00000000E+00  0.00000000E+00
  0.00000000E+00  0.00000000E+00  0.00000000E+00
  0.00000000E+00  0.00000000E+00  0.00000000E+00
  0.00000000E+00  0.00000000E+00  0.00000000E+00
  0.00000000E+00  0.00000000E+00  0.00000000E+00
  0.00000000E+00  0.00000000E+00  0.00000000E+00
  0.00000000E+00  0.00000000E+00  0.00000000E+00
  0.00000000E+00  0.00000000E+00  0.00000000E+00
  0.00000000E+00  0.00000000E+00  0.00000000E+00
  0.00000000E+00  0.00000000E+00  0.00000000E+00
  0.00000000E+00  0.00000000E+00  0.00000000E+00
  0.00000000E+00  0.00000000E+00  0.00000000E+00
  0.00000000E+00  0.00000000E+00  0.00000000E+00
