Sr Pb  S                                
   1.00000000000000     
     6.0373114130824943    0.0000000000000000    0.0000000000000000
     0.0000000000000000    6.0373114130824943    0.0000000000000000
     0.0000000000000000   -0.0000000000000000   18.1558929762417343
   Sr   Pb   S 
     7     5    12
Direct
  0.0000000000000000 -0.0000000000000000  0.9976714855366076
 -0.0000000000000000  0.5000000000000000  0.1666340970266963
  0.5000000000000000  0.0000000000000000  0.1666340970266963
  0.0000000000000000  0.5000000000000000  0.5000325696399700
  0.5000000000000000 -0.0000000000000000  0.5000325696399700
  0.5000000000000000  0.5000000000000000  0.3333333333333357
 -0.0000000000000000 -0.0000000000000000  0.6689951811300567
  0.5000000000000000  0.5000000000000000  0.9996882648769734
  0.0000000000000000  0.0000000000000000  0.3333333333333357
 -0.0000000000000000  0.5000000000000000  0.8333333333333357
  0.5000000000000000  0.0000000000000000  0.8333333333333357
  0.5000000000000000  0.5000000000000000  0.6669784017896909
 -0.0000000000000000  0.0000000000000000  0.1653253732533110
  0.5000000000000000  0.0000000000000000  0.0000162141896110
 -0.0000000000000000  0.5000000000000000  0.0000162141896110
  0.5000000000000000  0.5000000000000000  0.1672682708199740
  0.0000000000000000 -0.0000000000000000  0.5013412934133504
  0.5000000000000000  0.0000000000000000  0.3333333333333357
  0.0000000000000000  0.5000000000000000  0.3333333333333357
  0.5000000000000000  0.5000000000000000  0.4993983958466890
  0.0000000000000000 -0.0000000000000000  0.8333333333333357
  0.5000000000000000 -0.0000000000000000  0.6666504524770513
 -0.0000000000000000  0.5000000000000000  0.6666504524770513
  0.5000000000000000  0.5000000000000000  0.8333333333333357
 
  0.00000000E+00  0.00000000E+00  0.00000000E+00
  0.00000000E+00  0.00000000E+00  0.00000000E+00
  0.00000000E+00  0.00000000E+00  0.00000000E+00
  0.00000000E+00  0.00000000E+00  0.00000000E+00
  0.00000000E+00  0.00000000E+00  0.00000000E+00
  0.00000000E+00  0.00000000E+00  0.00000000E+00
  0.00000000E+00  0.00000000E+00  0.00000000E+00
  0.00000000E+00  0.00000000E+00  0.00000000E+00
  0.00000000E+00  0.00000000E+00  0.00000000E+00
  0.00000000E+00  0.00000000E+00  0.00000000E+00
  0.00000000E+00  0.00000000E+00  0.00000000E+00
  0.00000000E+00  0.00000000E+00  0.00000000E+00
  0.00000000E+00  0.00000000E+00  0.00000000E+00
  0.00000000E+00  0.00000000E+00  0.00000000E+00
  0.00000000E+00  0.00000000E+00  0.00000000E+00
  0.00000000E+00  0.00000000E+00  0.00000000E+00
  0.00000000E+00  0.00000000E+00  0.00000000E+00
  0.00000000E+00  0.00000000E+00  0.00000000E+00
  0.00000000E+00  0.00000000E+00  0.00000000E+00
  0.00000000E+00  0.00000000E+00  0.00000000E+00
  0.00000000E+00  0.00000000E+00  0.00000000E+00
  0.00000000E+00  0.00000000E+00  0.00000000E+00
  0.00000000E+00  0.00000000E+00  0.00000000E+00
  0.00000000E+00  0.00000000E+00  0.00000000E+00
