Sr  S Pb                                
   1.00000000000000     
     6.0397963382659752    0.0000000000000000    0.0000000000000000
     0.0000000000000000    6.0447035600507686    0.0000000000000000
     0.0000000000000000    0.0000000000000000   18.1564250380187744
   Sr   S    Pb
     8    12     4
Direct
  0.0000000000000000  0.0000000000000000  0.9991904253437522
  0.0000000000000000  0.5000000000000000  0.1674762413229006
  0.5000000000000000  0.0000000000000000  0.1676667145925360
  0.5000000000000000  0.5000000000000000  0.9989999520741639
  0.0000000000000000  0.0000000000000000  0.3345578481971429
  0.0000000000000000  0.5000000000000000  0.5001371933742965
  0.0000000000000000  0.0000000000000000  0.6665294732923678
  0.0000000000000000  0.5000000000000000  0.8321088184695430
  0.0000000000000000  0.0000000000000000  0.1670882441600322
  0.5000000000000000  0.0000000000000000  0.0003780205215389
  0.0000000000000000  0.5000000000000000  0.9995784225066208
  0.5000000000000000  0.5000000000000000  0.1662886461451200
  0.0000000000000000  0.0000000000000000  0.5002388598863147
  0.5000000000000000  0.0000000000000000  0.3331448381311717
  0.0000000000000000  0.5000000000000000  0.3337028935404409
  0.5000000000000000  0.5000000000000000  0.5003490174269731
  0.0000000000000000  0.0000000000000000  0.8329637731263170
  0.5000000000000000  0.0000000000000000  0.6663176492396912
  0.0000000000000000  0.5000000000000000  0.6664278067803496
  0.5000000000000000  0.5000000000000000  0.8335218285355134
  0.5000000000000000  0.0000000000000000  0.5005651089382711
  0.5000000000000000  0.5000000000000000  0.3333116576294877
  0.5000000000000000  0.0000000000000000  0.8333550090371665
  0.5000000000000000  0.5000000000000000  0.6661015577283927
 
  0.00000000E+00  0.00000000E+00  0.00000000E+00
  0.00000000E+00  0.00000000E+00  0.00000000E+00
  0.00000000E+00  0.00000000E+00  0.00000000E+00
  0.00000000E+00  0.00000000E+00  0.00000000E+00
  0.00000000E+00  0.00000000E+00  0.00000000E+00
  0.00000000E+00  0.00000000E+00  0.00000000E+00
  0.00000000E+00  0.00000000E+00  0.00000000E+00
  0.00000000E+00  0.00000000E+00  0.00000000E+00
  0.00000000E+00  0.00000000E+00  0.00000000E+00
  0.00000000E+00  0.00000000E+00  0.00000000E+00
  0.00000000E+00  0.00000000E+00  0.00000000E+00
  0.00000000E+00  0.00000000E+00  0.00000000E+00
  0.00000000E+00  0.00000000E+00  0.00000000E+00
  0.00000000E+00  0.00000000E+00  0.00000000E+00
  0.00000000E+00  0.00000000E+00  0.00000000E+00
  0.00000000E+00  0.00000000E+00  0.00000000E+00
  0.00000000E+00  0.00000000E+00  0.00000000E+00
  0.00000000E+00  0.00000000E+00  0.00000000E+00
  0.00000000E+00  0.00000000E+00  0.00000000E+00
  0.00000000E+00  0.00000000E+00  0.00000000E+00
  0.00000000E+00  0.00000000E+00  0.00000000E+00
  0.00000000E+00  0.00000000E+00  0.00000000E+00
  0.00000000E+00  0.00000000E+00  0.00000000E+00
  0.00000000E+00  0.00000000E+00  0.00000000E+00
