Sr  S Pb                                
   1.00000000000000     
     6.0388627953583160    0.0000000000000000    0.0000000000000000
     0.0000000000000000    6.0388627953583160   -0.0000000000000000
     0.0000000000000000   -0.0000000000000000   18.1406152413802353
   Sr   S    Pb
     7    12     5
Direct
 -0.0000000000000000 -0.0000000000000000  0.9985236984800345
  0.0000000000000000  0.5000000000000000  0.1675687238707602
  0.5000000000000000 -0.0000000000000000  0.1675687238707602
  0.5000000000000000  0.5000000000000000  0.9976768740205880
 -0.0000000000000000 -0.0000000000000000  0.3356117941340282
  0.0000000000000000 -0.0000000000000000  0.6665796188110401
  0.5000000000000000  0.5000000000000000  0.6666182489857523
 -0.0000000000000000 -0.0000000000000000  0.1670887275500952
  0.5000000000000000 -0.0000000000000000  0.9999794685671829
  0.0000000000000000  0.5000000000000000  0.9999794685671829
  0.5000000000000000  0.5000000000000000  0.1659750740703561
 -0.0000000000000000 -0.0000000000000000  0.5004439709374431
  0.5000000000000000  0.0000000000000000  0.3334224946506963
 -0.0000000000000000  0.5000000000000000  0.3334224946506963
  0.5000000000000000  0.5000000000000000  0.5005251456099313
 -0.0000000000000000 -0.0000000000000000  0.8331132888688342
  0.5000000000000000 -0.0000000000000000  0.6665008236799571
 -0.0000000000000000  0.5000000000000000  0.6665008236799571
  0.5000000000000000  0.5000000000000000  0.8328456845407542
 -0.0000000000000000  0.5000000000000000  0.5002474743929659
  0.5000000000000000 -0.0000000000000000  0.5002474743929659
  0.5000000000000000  0.5000000000000000  0.3332651559786663
  0.0000000000000000  0.5000000000000000  0.8331473738446763
  0.5000000000000000  0.0000000000000000  0.8331473738446763
 
  0.00000000E+00  0.00000000E+00  0.00000000E+00
  0.00000000E+00  0.00000000E+00  0.00000000E+00
  0.00000000E+00  0.00000000E+00  0.00000000E+00
  0.00000000E+00  0.00000000E+00  0.00000000E+00
  0.00000000E+00  0.00000000E+00  0.00000000E+00
  0.00000000E+00  0.00000000E+00  0.00000000E+00
  0.00000000E+00  0.00000000E+00  0.00000000E+00
  0.00000000E+00  0.00000000E+00  0.00000000E+00
  0.00000000E+00  0.00000000E+00  0.00000000E+00
  0.00000000E+00  0.00000000E+00  0.00000000E+00
  0.00000000E+00  0.00000000E+00  0.00000000E+00
  0.00000000E+00  0.00000000E+00  0.00000000E+00
  0.00000000E+00  0.00000000E+00  0.00000000E+00
  0.00000000E+00  0.00000000E+00  0.00000000E+00
  0.00000000E+00  0.00000000E+00  0.00000000E+00
  0.00000000E+00  0.00000000E+00  0.00000000E+00
  0.00000000E+00  0.00000000E+00  0.00000000E+00
  0.00000000E+00  0.00000000E+00  0.00000000E+00
  0.00000000E+00  0.00000000E+00  0.00000000E+00
  0.00000000E+00  0.00000000E+00  0.00000000E+00
  0.00000000E+00  0.00000000E+00  0.00000000E+00
  0.00000000E+00  0.00000000E+00  0.00000000E+00
  0.00000000E+00  0.00000000E+00  0.00000000E+00
  0.00000000E+00  0.00000000E+00  0.00000000E+00
