Sr Pb  S                                
   1.00000000000000     
     6.0352732108210265    0.0000000000000000    0.0000000000000000
     0.0000000000000000    6.0406428341908933    0.0000000000000000
     0.0000000000000000    0.0000000000000000   18.1313401908326775
   Sr   Pb   S 
     7     5    12
Direct
  0.0000000000000000  0.0000000000000000  0.9990320108227765
  0.0000000000000000  0.5000000000000000  0.1666666666666643
  0.5000000000000000  0.0000000000000000  0.1666666666666643
  0.0000000000000000  0.0000000000000000  0.3343013225105593
  0.0000000000000000  0.5000000000000000  0.5001709446531655
  0.0000000000000000  0.0000000000000000  0.6666666666666643
  0.0000000000000000  0.5000000000000000  0.8331623886801702
  0.5000000000000000  0.5000000000000000  0.9998184999872978
  0.5000000000000000  0.0000000000000000  0.5001627130960400
  0.5000000000000000  0.5000000000000000  0.3335148333460379
  0.5000000000000000  0.0000000000000000  0.8331706202372957
  0.5000000000000000  0.5000000000000000  0.6666666666666643
  0.0000000000000000  0.0000000000000000  0.1666666666666643
  0.5000000000000000  0.0000000000000000  0.0002046918251274
  0.0000000000000000  0.5000000000000000  0.9997333748590485
  0.5000000000000000  0.5000000000000000  0.1666666666666643
  0.0000000000000000  0.0000000000000000  0.5001705395391173
  0.5000000000000000  0.0000000000000000  0.3331286415082081
  0.0000000000000000  0.5000000000000000  0.3335999584742872
  0.5000000000000000  0.5000000000000000  0.5000851370906919
  0.0000000000000000  0.0000000000000000  0.8331627937942184
  0.5000000000000000  0.0000000000000000  0.6666666666666643
  0.0000000000000000  0.5000000000000000  0.6666666666666643
  0.5000000000000000  0.5000000000000000  0.8332481962426438
 
  0.00000000E+00  0.00000000E+00  0.00000000E+00
  0.00000000E+00  0.00000000E+00  0.00000000E+00
  0.00000000E+00  0.00000000E+00  0.00000000E+00
  0.00000000E+00  0.00000000E+00  0.00000000E+00
  0.00000000E+00  0.00000000E+00  0.00000000E+00
  0.00000000E+00  0.00000000E+00  0.00000000E+00
  0.00000000E+00  0.00000000E+00  0.00000000E+00
  0.00000000E+00  0.00000000E+00  0.00000000E+00
  0.00000000E+00  0.00000000E+00  0.00000000E+00
  0.00000000E+00  0.00000000E+00  0.00000000E+00
  0.00000000E+00  0.00000000E+00  0.00000000E+00
  0.00000000E+00  0.00000000E+00  0.00000000E+00
  0.00000000E+00  0.00000000E+00  0.00000000E+00
  0.00000000E+00  0.00000000E+00  0.00000000E+00
  0.00000000E+00  0.00000000E+00  0.00000000E+00
  0.00000000E+00  0.00000000E+00  0.00000000E+00
  0.00000000E+00  0.00000000E+00  0.00000000E+00
  0.00000000E+00  0.00000000E+00  0.00000000E+00
  0.00000000E+00  0.00000000E+00  0.00000000E+00
  0.00000000E+00  0.00000000E+00  0.00000000E+00
  0.00000000E+00  0.00000000E+00  0.00000000E+00
  0.00000000E+00  0.00000000E+00  0.00000000E+00
  0.00000000E+00  0.00000000E+00  0.00000000E+00
  0.00000000E+00  0.00000000E+00  0.00000000E+00
