Sr  S Pb                                
   1.00000000000000     
     6.0295342436041590    0.0000000000000000    0.0000000000000000
     0.0000000000000000    6.0295342436041590    0.0000000000000000
     0.0000000000000000    0.0000000000000000   18.1258803898246050
   Sr   S    Pb
     5    12     7
Direct
  0.0000000000000000  0.0000000000000000  0.9980778309328421
  0.0000000000000000  0.5000000000000000  0.1688269084867107
  0.5000000000000000  0.0000000000000000  0.1684344275851283
  0.5000000000000000  0.5000000000000000  0.9980778309328421
  0.0000000000000000  0.5000000000000000  0.5000378813986365
  0.0000000000000000  0.0000000000000000  0.1666125715685711
  0.5000000000000000  0.0000000000000000  0.9999661834923229
  0.0000000000000000  0.5000000000000000  0.0002706988536023
  0.5000000000000000  0.5000000000000000  0.1666125715685711
  0.0000000000000000  0.0000000000000000  0.5005681155450746
  0.5000000000000000  0.0000000000000000  0.3333703730198035
  0.0000000000000000  0.5000000000000000  0.3338421447562425
  0.5000000000000000  0.5000000000000000  0.5005681155450746
  0.0000000000000000  0.0000000000000000  0.8331362002577452
  0.5000000000000000  0.0000000000000000  0.6661386929335217
  0.0000000000000000  0.5000000000000000  0.6661220631943008
  0.5000000000000000  0.5000000000000000  0.8331362002577452
  0.0000000000000000  0.0000000000000000  0.3336894171312770
  0.5000000000000000  0.0000000000000000  0.5010842352639018
  0.5000000000000000  0.5000000000000000  0.3336894171312770
  0.0000000000000000  0.0000000000000000  0.6661639290533899
  0.0000000000000000  0.5000000000000000  0.8326310416637631
  0.5000000000000000  0.0000000000000000  0.8327792203742862
  0.5000000000000000  0.5000000000000000  0.6661639290533899
 
  0.00000000E+00  0.00000000E+00  0.00000000E+00
  0.00000000E+00  0.00000000E+00  0.00000000E+00
  0.00000000E+00  0.00000000E+00  0.00000000E+00
  0.00000000E+00  0.00000000E+00  0.00000000E+00
  0.00000000E+00  0.00000000E+00  0.00000000E+00
  0.00000000E+00  0.00000000E+00  0.00000000E+00
  0.00000000E+00  0.00000000E+00  0.00000000E+00
  0.00000000E+00  0.00000000E+00  0.00000000E+00
  0.00000000E+00  0.00000000E+00  0.00000000E+00
  0.00000000E+00  0.00000000E+00  0.00000000E+00
  0.00000000E+00  0.00000000E+00  0.00000000E+00
  0.00000000E+00  0.00000000E+00  0.00000000E+00
  0.00000000E+00  0.00000000E+00  0.00000000E+00
  0.00000000E+00  0.00000000E+00  0.00000000E+00
  0.00000000E+00  0.00000000E+00  0.00000000E+00
  0.00000000E+00  0.00000000E+00  0.00000000E+00
  0.00000000E+00  0.00000000E+00  0.00000000E+00
  0.00000000E+00  0.00000000E+00  0.00000000E+00
  0.00000000E+00  0.00000000E+00  0.00000000E+00
  0.00000000E+00  0.00000000E+00  0.00000000E+00
  0.00000000E+00  0.00000000E+00  0.00000000E+00
  0.00000000E+00  0.00000000E+00  0.00000000E+00
  0.00000000E+00  0.00000000E+00  0.00000000E+00
  0.00000000E+00  0.00000000E+00  0.00000000E+00
