Sr Pb  S                                
   1.00000000000000     
     6.0423300122694839    0.0000000000000000    0.0000000000000000
     0.0000000000000000    6.0420707413967527    0.0000000000000000
     0.0000000000000000    0.0000000000000000   18.1596665100271757
   Sr   Pb   S 
     8     4    12
Direct
  0.0000000000000000  0.0000000000000000  0.9993485308028474
  0.0000000000000000  0.5000000000000000  0.1664253718910861
  0.5000000000000000  0.0000000000000000  0.1668831860404615
  0.0000000000000000  0.0000000000000000  0.3327634286012723
  0.0000000000000000  0.5000000000000000  0.5001641799507216
  0.5000000000000000  0.0000000000000000  0.4996730544272718
  0.0000000000000000  0.5000000000000000  0.8334096093906570
  0.5000000000000000  0.5000000000000000  0.6677651725795678
  0.5000000000000000  0.5000000000000000  0.0002069039423564
  0.5000000000000000  0.5000000000000000  0.3337440191513100
  0.0000000000000000  0.0000000000000000  0.6665307932571518
  0.5000000000000000  0.0000000000000000  0.8334650131058462
  0.0000000000000000  0.0000000000000000  0.1664907336421647
  0.5000000000000000  0.0000000000000000  0.0003982938654964
  0.0000000000000000  0.5000000000000000  0.9997859778595153
  0.5000000000000000  0.5000000000000000  0.1664225238946757
  0.0000000000000000  0.0000000000000000  0.4990911892359586
  0.5000000000000000  0.0000000000000000  0.3333464583333923
  0.0000000000000000  0.5000000000000000  0.3333873415485747
  0.5000000000000000  0.5000000000000000  0.5009118967567989
  0.0000000000000000  0.0000000000000000  0.8339546943198688
  0.5000000000000000  0.0000000000000000  0.6661115252394386
  0.0000000000000000  0.5000000000000000  0.6668571642430131
  0.5000000000000000  0.5000000000000000  0.8328629379205380
 
  0.00000000E+00  0.00000000E+00  0.00000000E+00
  0.00000000E+00  0.00000000E+00  0.00000000E+00
  0.00000000E+00  0.00000000E+00  0.00000000E+00
  0.00000000E+00  0.00000000E+00  0.00000000E+00
  0.00000000E+00  0.00000000E+00  0.00000000E+00
  0.00000000E+00  0.00000000E+00  0.00000000E+00
  0.00000000E+00  0.00000000E+00  0.00000000E+00
  0.00000000E+00  0.00000000E+00  0.00000000E+00
  0.00000000E+00  0.00000000E+00  0.00000000E+00
  0.00000000E+00  0.00000000E+00  0.00000000E+00
  0.00000000E+00  0.00000000E+00  0.00000000E+00
  0.00000000E+00  0.00000000E+00  0.00000000E+00
  0.00000000E+00  0.00000000E+00  0.00000000E+00
  0.00000000E+00  0.00000000E+00  0.00000000E+00
  0.00000000E+00  0.00000000E+00  0.00000000E+00
  0.00000000E+00  0.00000000E+00  0.00000000E+00
  0.00000000E+00  0.00000000E+00  0.00000000E+00
  0.00000000E+00  0.00000000E+00  0.00000000E+00
  0.00000000E+00  0.00000000E+00  0.00000000E+00
  0.00000000E+00  0.00000000E+00  0.00000000E+00
  0.00000000E+00  0.00000000E+00  0.00000000E+00
  0.00000000E+00  0.00000000E+00  0.00000000E+00
  0.00000000E+00  0.00000000E+00  0.00000000E+00
  0.00000000E+00  0.00000000E+00  0.00000000E+00
