Sr Pb  S                                
   1.00000000000000     
     6.0234630765508284    0.0000000000000000    0.0000000000000000
     0.0000000000000000    6.0255002944819145    0.0000000000000000
     0.0000000000000000    0.0000000000000000   18.1020860100444771
   Sr   Pb   S 
     4     8    12
Direct
 -0.0000000000000000  0.0000000000000000  0.9992478460842931
 -0.0000000000000000  0.5000000000000000  0.1666666666666643
 -0.0000000000000000 -0.0000000000000000  0.3340854872490426
  0.5000000000000000  0.5000000000000000  0.6666666666666643
  0.5000000000000000  0.0000000000000000  0.1666666666666643
  0.5000000000000000  0.5000000000000000  0.9998116877292479
  0.0000000000000000  0.5000000000000000  0.5001671964931218
  0.5000000000000000 -0.0000000000000000  0.5001074670100817
  0.5000000000000000  0.5000000000000000  0.3335216456040878
  0.0000000000000000  0.0000000000000000  0.6666666666666643
 -0.0000000000000000  0.5000000000000000  0.8331661368402139
  0.5000000000000000  0.0000000000000000  0.8332258663232540
  0.0000000000000000  0.0000000000000000  0.1666666666666643
  0.5000000000000000 -0.0000000000000000  0.9996162202384167
 -0.0000000000000000  0.5000000000000000  0.0001845903879641
  0.5000000000000000  0.5000000000000000  0.1666666666666643
  0.0000000000000000 -0.0000000000000000  0.4999868554928021
  0.5000000000000000  0.0000000000000000  0.3337171130949190
  0.0000000000000000  0.5000000000000000  0.3331487429453716
  0.5000000000000000  0.5000000000000000  0.5002720854451655
  0.0000000000000000 -0.0000000000000000  0.8333464778405335
  0.5000000000000000  0.0000000000000000  0.6666666666666643
 -0.0000000000000000  0.5000000000000000  0.6666666666666643
  0.5000000000000000  0.5000000000000000  0.8330612478881702
 
  0.00000000E+00  0.00000000E+00  0.00000000E+00
  0.00000000E+00  0.00000000E+00  0.00000000E+00
  0.00000000E+00  0.00000000E+00  0.00000000E+00
  0.00000000E+00  0.00000000E+00  0.00000000E+00
  0.00000000E+00  0.00000000E+00  0.00000000E+00
  0.00000000E+00  0.00000000E+00  0.00000000E+00
  0.00000000E+00  0.00000000E+00  0.00000000E+00
  0.00000000E+00  0.00000000E+00  0.00000000E+00
  0.00000000E+00  0.00000000E+00  0.00000000E+00
  0.00000000E+00  0.00000000E+00  0.00000000E+00
  0.00000000E+00  0.00000000E+00  0.00000000E+00
  0.00000000E+00  0.00000000E+00  0.00000000E+00
  0.00000000E+00  0.00000000E+00  0.00000000E+00
  0.00000000E+00  0.00000000E+00  0.00000000E+00
  0.00000000E+00  0.00000000E+00  0.00000000E+00
  0.00000000E+00  0.00000000E+00  0.00000000E+00
  0.00000000E+00  0.00000000E+00  0.00000000E+00
  0.00000000E+00  0.00000000E+00  0.00000000E+00
  0.00000000E+00  0.00000000E+00  0.00000000E+00
  0.00000000E+00  0.00000000E+00  0.00000000E+00
  0.00000000E+00  0.00000000E+00  0.00000000E+00
  0.00000000E+00  0.00000000E+00  0.00000000E+00
  0.00000000E+00  0.00000000E+00  0.00000000E+00
  0.00000000E+00  0.00000000E+00  0.00000000E+00
