Sr Pb  S                                
   1.00000000000000     
     6.0313824403618419    0.0000000000000000    0.0000000000000000
     0.0000000000000000    6.0338247654507153    0.0000000000000000
     0.0000000000000000    0.0000000000000000   18.1265042068191065
   Sr   Pb   S 
     6     6    12
Direct
  0.0000000000000000 -0.0000000000000000  0.0000556989987691
 -0.0000000000000000  0.5000000000000000  0.1670469155375192
 -0.0000000000000000 -0.0000000000000000  0.3333333333333357
 -0.0000000000000000  0.5000000000000000  0.4996197511291453
  0.0000000000000000 -0.0000000000000000  0.6666109676678964
  0.5000000000000000 -0.0000000000000000  0.8333333333333357
  0.5000000000000000 -0.0000000000000000  0.1666369049202364
  0.5000000000000000  0.5000000000000000  0.0000588279921164
  0.5000000000000000 -0.0000000000000000  0.5000297617464280
  0.5000000000000000  0.5000000000000000  0.3333333333333357
  0.0000000000000000  0.5000000000000000  0.8333333333333357
  0.5000000000000000  0.5000000000000000  0.6666078386745496
 -0.0000000000000000  0.0000000000000000  0.1666511042826127
  0.5000000000000000 -0.0000000000000000  0.9995448599212193
  0.0000000000000000  0.5000000000000000  0.0005976972831830
  0.5000000000000000  0.5000000000000000  0.1666213482808457
  0.0000000000000000 -0.0000000000000000  0.5000155623840529
  0.5000000000000000 -0.0000000000000000  0.3333333333333357
 -0.0000000000000000  0.5000000000000000  0.3333333333333357
  0.5000000000000000  0.5000000000000000  0.5000453183858169
  0.0000000000000000 -0.0000000000000000  0.8333333333333357
  0.5000000000000000 -0.0000000000000000  0.6671218067454450
  0.0000000000000000  0.5000000000000000  0.6660689693834827
  0.5000000000000000  0.5000000000000000  0.8333333333333357
 
  0.00000000E+00  0.00000000E+00  0.00000000E+00
  0.00000000E+00  0.00000000E+00  0.00000000E+00
  0.00000000E+00  0.00000000E+00  0.00000000E+00
  0.00000000E+00  0.00000000E+00  0.00000000E+00
  0.00000000E+00  0.00000000E+00  0.00000000E+00
  0.00000000E+00  0.00000000E+00  0.00000000E+00
  0.00000000E+00  0.00000000E+00  0.00000000E+00
  0.00000000E+00  0.00000000E+00  0.00000000E+00
  0.00000000E+00  0.00000000E+00  0.00000000E+00
  0.00000000E+00  0.00000000E+00  0.00000000E+00
  0.00000000E+00  0.00000000E+00  0.00000000E+00
  0.00000000E+00  0.00000000E+00  0.00000000E+00
  0.00000000E+00  0.00000000E+00  0.00000000E+00
  0.00000000E+00  0.00000000E+00  0.00000000E+00
  0.00000000E+00  0.00000000E+00  0.00000000E+00
  0.00000000E+00  0.00000000E+00  0.00000000E+00
  0.00000000E+00  0.00000000E+00  0.00000000E+00
  0.00000000E+00  0.00000000E+00  0.00000000E+00
  0.00000000E+00  0.00000000E+00  0.00000000E+00
  0.00000000E+00  0.00000000E+00  0.00000000E+00
  0.00000000E+00  0.00000000E+00  0.00000000E+00
  0.00000000E+00  0.00000000E+00  0.00000000E+00
  0.00000000E+00  0.00000000E+00  0.00000000E+00
  0.00000000E+00  0.00000000E+00  0.00000000E+00
