Sr  S Pb                                
   1.00000000000000     
     6.0334369811562203    0.0000000000000000    0.0000000000000000
     0.0000000000000000    6.0334369811562203   -0.0000000000000000
     0.0000000000000000    0.0000000000000000   18.1397268159455294
   Sr   S    Pb
     6    12     6
Direct
 -0.0000000000000000  0.0000000000000000  0.9987549366383365
 -0.0000000000000000  0.5000000000000000  0.1675682139368319
  0.5000000000000000 -0.0000000000000000  0.1675682139368319
  0.5000000000000000  0.5000000000000000  0.9974862995031346
 -0.0000000000000000  0.0000000000000000  0.3354248155371562
  0.5000000000000000  0.5000000000000000  0.6666047027993381
  0.0000000000000000  0.0000000000000000  0.1671394767849826
  0.5000000000000000  0.0000000000000000  0.9998973649545030
  0.0000000000000000  0.5000000000000000  0.9998973649545030
  0.5000000000000000  0.5000000000000000  0.1659508691549937
  0.0000000000000000  0.0000000000000000  0.5003878896066486
  0.5000000000000000 -0.0000000000000000  0.3335367673213595
  0.0000000000000000  0.5000000000000000  0.3335367673213595
  0.5000000000000000  0.5000000000000000  0.5005933777238522
 -0.0000000000000000  0.0000000000000000  0.8333189047205984
  0.5000000000000000  0.0000000000000000  0.6664500083212297
 -0.0000000000000000  0.5000000000000000  0.6664500083212297
  0.5000000000000000  0.5000000000000000  0.8326824596900950
 -0.0000000000000000  0.5000000000000000  0.5005599891472392
  0.5000000000000000 -0.0000000000000000  0.5005599891472392
  0.5000000000000000  0.5000000000000000  0.3334672672063361
 -0.0000000000000000 -0.0000000000000000  0.6664998054083328
  0.0000000000000000  0.5000000000000000  0.8328322539319378
  0.5000000000000000  0.0000000000000000  0.8328322539319378
 
  0.00000000E+00  0.00000000E+00  0.00000000E+00
  0.00000000E+00  0.00000000E+00  0.00000000E+00
  0.00000000E+00  0.00000000E+00  0.00000000E+00
  0.00000000E+00  0.00000000E+00  0.00000000E+00
  0.00000000E+00  0.00000000E+00  0.00000000E+00
  0.00000000E+00  0.00000000E+00  0.00000000E+00
  0.00000000E+00  0.00000000E+00  0.00000000E+00
  0.00000000E+00  0.00000000E+00  0.00000000E+00
  0.00000000E+00  0.00000000E+00  0.00000000E+00
  0.00000000E+00  0.00000000E+00  0.00000000E+00
  0.00000000E+00  0.00000000E+00  0.00000000E+00
  0.00000000E+00  0.00000000E+00  0.00000000E+00
  0.00000000E+00  0.00000000E+00  0.00000000E+00
  0.00000000E+00  0.00000000E+00  0.00000000E+00
  0.00000000E+00  0.00000000E+00  0.00000000E+00
  0.00000000E+00  0.00000000E+00  0.00000000E+00
  0.00000000E+00  0.00000000E+00  0.00000000E+00
  0.00000000E+00  0.00000000E+00  0.00000000E+00
  0.00000000E+00  0.00000000E+00  0.00000000E+00
  0.00000000E+00  0.00000000E+00  0.00000000E+00
  0.00000000E+00  0.00000000E+00  0.00000000E+00
  0.00000000E+00  0.00000000E+00  0.00000000E+00
  0.00000000E+00  0.00000000E+00  0.00000000E+00
  0.00000000E+00  0.00000000E+00  0.00000000E+00
