Sr  S Pb                                
   1.00000000000000     
     6.0439699057633840    0.0000000000000000    0.0000000000000000
     0.0000000000000000    6.0439699057633840    0.0000000000000000
     0.0000000000000000   -0.0000000000000000   18.1661128338231492
   Sr   S    Pb
     8    12     4
Direct
  0.0000000000000000 -0.0000000000000000  0.9982617926007180
 -0.0000000000000000  0.5000000000000000  0.1667806456148508
  0.5000000000000000 -0.0000000000000000  0.1667806456148508
  0.5000000000000000  0.5000000000000000  0.9982617926007180
  0.0000000000000000 -0.0000000000000000  0.3332193543851494
  0.0000000000000000  0.5000000000000000  0.5017382073992820
  0.5000000000000000 -0.0000000000000000  0.5017382073992820
  0.5000000000000000  0.5000000000000000  0.3332193543851494
  0.0000000000000000 -0.0000000000000000  0.1663059660679483
  0.5000000000000000 -0.0000000000000000  0.9997702205954744
 -0.0000000000000000  0.5000000000000000  0.9997702205954744
  0.5000000000000000  0.5000000000000000  0.1663059660679483
  0.0000000000000000  0.0000000000000000  0.5002297794045256
  0.5000000000000000  0.0000000000000000  0.3336940339320516
 -0.0000000000000000  0.5000000000000000  0.3336940339320516
  0.5000000000000000  0.5000000000000000  0.5002297794045256
 -0.0000000000000000  0.0000000000000000  0.8335503849437597
  0.5000000000000000 -0.0000000000000000  0.6664496150562403
  0.0000000000000000  0.5000000000000000  0.6664496150562403
  0.5000000000000000  0.5000000000000000  0.8335503849437597
 -0.0000000000000000  0.0000000000000000  0.6668498574713825
  0.0000000000000000  0.5000000000000000  0.8331501425286175
  0.5000000000000000 -0.0000000000000000  0.8331501425286175
  0.5000000000000000  0.5000000000000000  0.6668498574713825
 
  0.00000000E+00  0.00000000E+00  0.00000000E+00
  0.00000000E+00  0.00000000E+00  0.00000000E+00
  0.00000000E+00  0.00000000E+00  0.00000000E+00
  0.00000000E+00  0.00000000E+00  0.00000000E+00
  0.00000000E+00  0.00000000E+00  0.00000000E+00
  0.00000000E+00  0.00000000E+00  0.00000000E+00
  0.00000000E+00  0.00000000E+00  0.00000000E+00
  0.00000000E+00  0.00000000E+00  0.00000000E+00
  0.00000000E+00  0.00000000E+00  0.00000000E+00
  0.00000000E+00  0.00000000E+00  0.00000000E+00
  0.00000000E+00  0.00000000E+00  0.00000000E+00
  0.00000000E+00  0.00000000E+00  0.00000000E+00
  0.00000000E+00  0.00000000E+00  0.00000000E+00
  0.00000000E+00  0.00000000E+00  0.00000000E+00
  0.00000000E+00  0.00000000E+00  0.00000000E+00
  0.00000000E+00  0.00000000E+00  0.00000000E+00
  0.00000000E+00  0.00000000E+00  0.00000000E+00
  0.00000000E+00  0.00000000E+00  0.00000000E+00
  0.00000000E+00  0.00000000E+00  0.00000000E+00
  0.00000000E+00  0.00000000E+00  0.00000000E+00
  0.00000000E+00  0.00000000E+00  0.00000000E+00
  0.00000000E+00  0.00000000E+00  0.00000000E+00
  0.00000000E+00  0.00000000E+00  0.00000000E+00
  0.00000000E+00  0.00000000E+00  0.00000000E+00
