Sr Pb  S                                
   1.00000000000000     
     6.0241548321743696    0.0000000000000000    0.0000000000000000
     0.0000000000000000    6.0240742827176526    0.0000000000000000
     0.0000000000000000    0.0000000000000000   18.1035411959077308
   Sr   Pb   S 
     4     8    12
Direct
 -0.0000000000000000 -0.0000000000000000  0.0000540089298891
  0.0000000000000000  0.5000000000000000  0.1683822893568208
 -0.0000000000000000  0.5000000000000000  0.4999000817268635
  0.5000000000000000 -0.0000000000000000  0.8319358646788249
  0.5000000000000000 -0.0000000000000000  0.1664744318339556
  0.5000000000000000  0.5000000000000000  0.0000162347032517
 -0.0000000000000000 -0.0000000000000000  0.3336380738554028
  0.5000000000000000  0.0000000000000000  0.4995508460944326
  0.5000000000000000  0.5000000000000000  0.3335275536284948
 -0.0000000000000000 -0.0000000000000000  0.6663961753644825
 -0.0000000000000000  0.5000000000000000  0.8334337863167346
  0.5000000000000000  0.5000000000000000  0.6664204282766261
  0.0000000000000000 -0.0000000000000000  0.1664376253923206
  0.5000000000000000 -0.0000000000000000 -0.0005720364674919
  0.0000000000000000  0.5000000000000000  0.0007506485415502
  0.5000000000000000  0.5000000000000000  0.1669677492310791
  0.0000000000000000 -0.0000000000000000  0.4999432082448858
  0.5000000000000000 -0.0000000000000000  0.3335048556681199
  0.0000000000000000  0.5000000000000000  0.3337450777985789
  0.5000000000000000  0.5000000000000000  0.5000062479916763
  0.0000000000000000 -0.0000000000000000  0.8335386741459678
  0.5000000000000000 -0.0000000000000000  0.6665093331463252
  0.0000000000000000  0.5000000000000000  0.6663645871994724
  0.5000000000000000  0.5000000000000000  0.8330742543417359
 
  0.00000000E+00  0.00000000E+00  0.00000000E+00
  0.00000000E+00  0.00000000E+00  0.00000000E+00
  0.00000000E+00  0.00000000E+00  0.00000000E+00
  0.00000000E+00  0.00000000E+00  0.00000000E+00
  0.00000000E+00  0.00000000E+00  0.00000000E+00
  0.00000000E+00  0.00000000E+00  0.00000000E+00
  0.00000000E+00  0.00000000E+00  0.00000000E+00
  0.00000000E+00  0.00000000E+00  0.00000000E+00
  0.00000000E+00  0.00000000E+00  0.00000000E+00
  0.00000000E+00  0.00000000E+00  0.00000000E+00
  0.00000000E+00  0.00000000E+00  0.00000000E+00
  0.00000000E+00  0.00000000E+00  0.00000000E+00
  0.00000000E+00  0.00000000E+00  0.00000000E+00
  0.00000000E+00  0.00000000E+00  0.00000000E+00
  0.00000000E+00  0.00000000E+00  0.00000000E+00
  0.00000000E+00  0.00000000E+00  0.00000000E+00
  0.00000000E+00  0.00000000E+00  0.00000000E+00
  0.00000000E+00  0.00000000E+00  0.00000000E+00
  0.00000000E+00  0.00000000E+00  0.00000000E+00
  0.00000000E+00  0.00000000E+00  0.00000000E+00
  0.00000000E+00  0.00000000E+00  0.00000000E+00
  0.00000000E+00  0.00000000E+00  0.00000000E+00
  0.00000000E+00  0.00000000E+00  0.00000000E+00
  0.00000000E+00  0.00000000E+00  0.00000000E+00
