Sr  S Pb                                
   1.00000000000000     
     6.0472529267608550    0.0000000000000000    0.0000000000000000
     0.0000000000000000    6.0472529267608550    0.0000000000000000
     0.0000000000000000    0.0000000000000000   18.1751699166032665
   Sr   S    Pb
     9    12     3
Direct
  0.0000000000000000  0.0000000000000000  0.9989800120919582
  0.0000000000000000  0.5000000000000000  0.1672905124378878
  0.5000000000000000  0.0000000000000000  0.1660428208954408
  0.5000000000000000  0.5000000000000000  0.9994481833266485
  0.0000000000000000  0.0000000000000000  0.3343533212413781
  0.0000000000000000  0.5000000000000000  0.5008477835094187
  0.5000000000000000  0.5000000000000000  0.3338851500066868
  0.0000000000000000  0.0000000000000000  0.6666666666666643
  0.5000000000000000  0.0000000000000000  0.8324855498239170
  0.0000000000000000  0.0000000000000000  0.1666666666666643
  0.5000000000000000  0.0000000000000000  0.9993598594338062
  0.0000000000000000  0.5000000000000000  0.0004103538810597
  0.5000000000000000  0.5000000000000000  0.1666666666666643
  0.0000000000000000  0.0000000000000000  0.5003745104362637
  0.5000000000000000  0.0000000000000000  0.3329229794522759
  0.0000000000000000  0.5000000000000000  0.3339734738995295
  0.5000000000000000  0.5000000000000000  0.4996994625983245
  0.0000000000000000  0.0000000000000000  0.8329588228970720
  0.5000000000000000  0.0000000000000000  0.6673139025572706
  0.0000000000000000  0.5000000000000000  0.6660194307760580
  0.5000000000000000  0.5000000000000000  0.8336338707350113
  0.5000000000000000  0.0000000000000000  0.4999437230544935
  0.0000000000000000  0.5000000000000000  0.8333896102788420
  0.5000000000000000  0.5000000000000000  0.6666666666666643
 
  0.00000000E+00  0.00000000E+00  0.00000000E+00
  0.00000000E+00  0.00000000E+00  0.00000000E+00
  0.00000000E+00  0.00000000E+00  0.00000000E+00
  0.00000000E+00  0.00000000E+00  0.00000000E+00
  0.00000000E+00  0.00000000E+00  0.00000000E+00
  0.00000000E+00  0.00000000E+00  0.00000000E+00
  0.00000000E+00  0.00000000E+00  0.00000000E+00
  0.00000000E+00  0.00000000E+00  0.00000000E+00
  0.00000000E+00  0.00000000E+00  0.00000000E+00
  0.00000000E+00  0.00000000E+00  0.00000000E+00
  0.00000000E+00  0.00000000E+00  0.00000000E+00
  0.00000000E+00  0.00000000E+00  0.00000000E+00
  0.00000000E+00  0.00000000E+00  0.00000000E+00
  0.00000000E+00  0.00000000E+00  0.00000000E+00
  0.00000000E+00  0.00000000E+00  0.00000000E+00
  0.00000000E+00  0.00000000E+00  0.00000000E+00
  0.00000000E+00  0.00000000E+00  0.00000000E+00
  0.00000000E+00  0.00000000E+00  0.00000000E+00
  0.00000000E+00  0.00000000E+00  0.00000000E+00
  0.00000000E+00  0.00000000E+00  0.00000000E+00
  0.00000000E+00  0.00000000E+00  0.00000000E+00
  0.00000000E+00  0.00000000E+00  0.00000000E+00
  0.00000000E+00  0.00000000E+00  0.00000000E+00
  0.00000000E+00  0.00000000E+00  0.00000000E+00
