Sr Pb  S                                
   1.00000000000000     
     6.0237465740373963    0.0000000000000000    0.0000000000000000
     0.0000000000000000    6.0254639563004178    0.0000000000000000
     0.0000000000000000    0.0000000000000000   18.0877191322760815
   Sr   Pb   S 
     4     8    12
Direct
  0.0000000000000000 -0.0000000000000000  0.9989109398204494
 -0.0000000000000000  0.5000000000000000  0.1666666666666643
 -0.0000000000000000  0.0000000000000000  0.3344223935128863
  0.0000000000000000  0.0000000000000000  0.6666666666666643
  0.5000000000000000  0.0000000000000000  0.1666666666666643
  0.5000000000000000  0.5000000000000000  0.9997649996554355
 -0.0000000000000000  0.5000000000000000  0.5002147034909827
  0.5000000000000000 -0.0000000000000000  0.5001545791715215
  0.5000000000000000  0.5000000000000000  0.3335683336779002
 -0.0000000000000000  0.5000000000000000  0.8331186298423530
  0.5000000000000000  0.0000000000000000  0.8331787541618142
  0.5000000000000000  0.5000000000000000  0.6666666666666643
  0.0000000000000000  0.0000000000000000  0.1666666666666643
  0.5000000000000000  0.0000000000000000  0.9996559646315979
  0.0000000000000000  0.5000000000000000  0.0001005276497343
  0.5000000000000000  0.5000000000000000  0.1666666666666643
  0.0000000000000000 -0.0000000000000000  0.5002200364057207
  0.5000000000000000 -0.0000000000000000  0.3336773687017375
  0.0000000000000000  0.5000000000000000  0.3332328056836014
  0.5000000000000000  0.5000000000000000  0.5000753537906411
  0.0000000000000000  0.0000000000000000  0.8331132969276150
  0.5000000000000000 -0.0000000000000000  0.6666666666666643
  0.0000000000000000  0.5000000000000000  0.6666666666666643
  0.5000000000000000  0.5000000000000000  0.8332579795426946
 
  0.00000000E+00  0.00000000E+00  0.00000000E+00
  0.00000000E+00  0.00000000E+00  0.00000000E+00
  0.00000000E+00  0.00000000E+00  0.00000000E+00
  0.00000000E+00  0.00000000E+00  0.00000000E+00
  0.00000000E+00  0.00000000E+00  0.00000000E+00
  0.00000000E+00  0.00000000E+00  0.00000000E+00
  0.00000000E+00  0.00000000E+00  0.00000000E+00
  0.00000000E+00  0.00000000E+00  0.00000000E+00
  0.00000000E+00  0.00000000E+00  0.00000000E+00
  0.00000000E+00  0.00000000E+00  0.00000000E+00
  0.00000000E+00  0.00000000E+00  0.00000000E+00
  0.00000000E+00  0.00000000E+00  0.00000000E+00
  0.00000000E+00  0.00000000E+00  0.00000000E+00
  0.00000000E+00  0.00000000E+00  0.00000000E+00
  0.00000000E+00  0.00000000E+00  0.00000000E+00
  0.00000000E+00  0.00000000E+00  0.00000000E+00
  0.00000000E+00  0.00000000E+00  0.00000000E+00
  0.00000000E+00  0.00000000E+00  0.00000000E+00
  0.00000000E+00  0.00000000E+00  0.00000000E+00
  0.00000000E+00  0.00000000E+00  0.00000000E+00
  0.00000000E+00  0.00000000E+00  0.00000000E+00
  0.00000000E+00  0.00000000E+00  0.00000000E+00
  0.00000000E+00  0.00000000E+00  0.00000000E+00
  0.00000000E+00  0.00000000E+00  0.00000000E+00
