Sr  S Sr  S Sr Pb  S 
 1.0000000000000000
     6.0198998451000003    0.0000000000000000    6.0198998451000003
     0.0000000000000000   -6.0198998451000003   -6.0198998451000003
     6.0198998451000003    6.0198998451000003   -6.0198998451000021
 Sr  S   Sr  S   Sr  Pb  S  
   4   4   4   4   1   3   4
Cartesian
  0.0000000000000000  0.0000000000000000  0.0000000000000000
  0.0000000000000000 -3.0099499225500010 -3.0099499225500010
  3.0099499225499997  0.0000000000000000  3.0099499225499997
  3.0099499225500006 -3.0099499225500006 -6.0198998451000012
  6.0198998451000012  0.0000000000000000 -9.0298497676500027
  3.0099499225500006 -0.0000000000000002  0.0000000000000000
  6.0198998451000012 -3.0099499225500002  0.0000000000000002
  3.0099499225500006 -3.0099499225500002 -3.0099499225499997
  6.0198998451000012  0.0000000000000009 -6.0198998451000012
  6.0198998451000012  3.0099499225500015 -3.0099499225499993
  9.0298497676500027  0.0000000000000000 -3.0099499225499997
  3.0099499225499997 -3.0099499225500010 -0.0000000000000013
  6.0198998451000012  0.0000000000000000 -3.0099499225500033
  9.0298497676500027  0.0000000000000000 -6.0198998451000012
  6.0198998451000012  3.0099499225500015 -6.0198998451000003
  9.0298497676500027  3.0099499225500015 -3.0099499225499997
  6.0198998451000012  0.0000000000000009  0.0000000000000013
  6.0198998451000012 -3.0099499225500006 -3.0099499225500002
  3.0099499225500010  0.0000000000000009 -3.0099499225499988
  9.0298497676500027  3.0099499225500024  0.0000000000000009
  6.0198998451000003  0.0000000000000000  3.0099499225499988
  3.0099499225500015  0.0000000000000000 -6.0198998451000030
  6.0198998451000012  3.0099499225500015 -0.0000000000000018
  3.0099499225500002  3.0099499225500006 -3.0099499225500033
