Sr Pb Sr  S Pb Sr Pb  S Pb  S 
 1.0000000000000000
    -6.0198998451000003    0.0000000000000000    0.0000000000000000
     0.0000000000000000    6.0198998451000003    6.0198998451000003
     0.0000000000000000    6.0198998451000003  -12.0397996902000024
 Sr  Pb  Sr  S   Pb  Sr  Pb  S   Pb  S  
   1   1   2   4   1   1   2   4   4   4
Cartesian
  0.0000000000000000  0.0000000000000000  0.0000000000000000
  0.0000000000000000  3.0099499225499997  3.0099499225499997
 -3.0099499225500010  6.0198998451000012 -9.0298497676500027
 -3.0099499225500010  3.0099499225500006  0.0000000000000004
  0.0000000000000000  6.0198998451000012 -9.0298497676500027
 -3.0099499225500010  0.0000000000000000  0.0000000000000000
  0.0000000000000000  3.0099499225500006  0.0000000000000004
 -3.0099499225500010  3.0099499225499997  3.0099499225499997
  0.0000000000000000  6.0198998451000012 -6.0198998451000012
  0.0000000000000000  9.0298497676500027 -3.0099499225499988
 -3.0099499225500010  6.0198998451000012 -3.0099499225500033
 -3.0099499225500010  9.0298497676500027 -6.0198998451000021
  0.0000000000000000  6.0198998451000012 -3.0099499225500033
 -3.0099499225500010  6.0198998451000012 -6.0198998451000012
  0.0000000000000000  9.0298497676500027 -6.0198998451000021
 -3.0099499225500010  9.0298497676500027 -3.0099499225499988
  0.0000000000000000  6.0198998451000012  0.0000000000000009
  0.0000000000000000  3.0099499225500010 -3.0099499225499993
 -3.0099499225500010  6.0198998451000003  3.0099499225499993
 -3.0099499225500010  3.0099499225500015 -6.0198998451000030
  0.0000000000000000  6.0198998451000003  3.0099499225499993
 -3.0099499225500010  6.0198998451000012  0.0000000000000009
  0.0000000000000000  3.0099499225500015 -6.0198998451000030
 -3.0099499225500010  3.0099499225500010 -3.0099499225499993
