Sr  S Pb Sr Pb  S Sr Pb  S 
 1.0000000000000000
     6.0198998451000003    0.0000000000000000    0.0000000000000000
     0.0000000000000000    6.0198998451000003    0.0000000000000000
     0.0000000000000000    0.0000000000000000   18.0596995353000018
 Sr  S   Pb  Sr  Pb  S   Sr  Pb  S  
   4   4   1   2   1   4   1   3   4
Cartesian
  0.0000000000000000  0.0000000000000000  0.0000000000000000
  0.0000000000000000  3.0099499225499997  3.0099499225500002
  3.0099499225499997  0.0000000000000000  3.0099499225500002
  3.0099499225499997  3.0099499225499997  0.0000000000000000
  0.0000000000000000  0.0000000000000000  3.0099499225500002
  3.0099499225499997  0.0000000000000000  0.0000000000000000
  0.0000000000000000  3.0099499225499997  0.0000000000000000
  3.0099499225499997  3.0099499225499997  3.0099499225500002
  0.0000000000000000  0.0000000000000000  6.0198998451000003
  0.0000000000000000  3.0099499225499997  9.0298497676499991
  3.0099499225499997  0.0000000000000000  9.0298497676499991
  3.0099499225499997  3.0099499225499997  6.0198998451000003
  0.0000000000000000  0.0000000000000000  9.0298497676499991
  3.0099499225499997  0.0000000000000000  6.0198998451000003
  0.0000000000000000  3.0099499225499997  6.0198998451000003
  3.0099499225499997  3.0099499225499997  9.0298497676499991
  0.0000000000000000  0.0000000000000000 12.0397996902000006
  0.0000000000000000  3.0099499225499997 15.0497496127500003
  3.0099499225499997  0.0000000000000000 15.0497496127500003
  3.0099499225499997  3.0099499225499997 12.0397996902000006
  0.0000000000000000  0.0000000000000000 15.0497496127500003
  3.0099499225499997  0.0000000000000000 12.0397996902000006
  0.0000000000000000  3.0099499225499997 12.0397996902000006
  3.0099499225499997  3.0099499225499997 15.0497496127500003
