Sr  S Pb                                
   1.00000000000000     
    -6.0594208713682063    0.0000000000000000   -6.0594208713682063
     0.0000000000000000   -6.0594208713682063   -6.0594208713682063
    -6.0594208713682063   -6.0594208713682063    0.0000000000000000
   Sr   S    Pb
     7     8     1
Direct
  0.0000000000000000  0.0000000000000000  0.0000000000000000
  0.0000000000000000  0.5000000000000000  0.0000000000000000
  0.5000000000000000  0.0000000000000000  0.0000000000000000
  0.0000000000000000  0.0000000000000000  0.5000000000000000
  0.5000000000000000  0.5000000000000000  0.5000000000000000
  0.5000000000000000  0.0000000000000000  0.5000000000000000
  0.0000000000000000  0.5000000000000000  0.5000000000000000
  0.7500000000000000  0.7500000000000000  0.2500000000000000
  0.7509688261091227  0.2490311738908773  0.7490311738908773
  0.2490311738908773  0.7509688261091227  0.7490311738908773
  0.7509688261091227  0.7509688261091227  0.7490311738908773
  0.2500000000000000  0.2500000000000000  0.7500000000000000
  0.2490311738908773  0.7509688261091227  0.2509688261091227
  0.7509688261091227  0.2490311738908773  0.2509688261091227
  0.2490311738908773  0.2490311738908773  0.2509688261091227
  0.5000000000000000  0.5000000000000000  0.0000000000000000
 
  0.00000000E+00  0.00000000E+00  0.00000000E+00
  0.00000000E+00  0.00000000E+00  0.00000000E+00
  0.00000000E+00  0.00000000E+00  0.00000000E+00
  0.00000000E+00  0.00000000E+00  0.00000000E+00
  0.00000000E+00  0.00000000E+00  0.00000000E+00
  0.00000000E+00  0.00000000E+00  0.00000000E+00
  0.00000000E+00  0.00000000E+00  0.00000000E+00
  0.00000000E+00  0.00000000E+00  0.00000000E+00
  0.00000000E+00  0.00000000E+00  0.00000000E+00
  0.00000000E+00  0.00000000E+00  0.00000000E+00
  0.00000000E+00  0.00000000E+00  0.00000000E+00
  0.00000000E+00  0.00000000E+00  0.00000000E+00
  0.00000000E+00  0.00000000E+00  0.00000000E+00
  0.00000000E+00  0.00000000E+00  0.00000000E+00
  0.00000000E+00  0.00000000E+00  0.00000000E+00
  0.00000000E+00  0.00000000E+00  0.00000000E+00
