Sr Pb  S                                
   1.00000000000000     
    -6.0373185460172980    0.0000000000000000    0.0000000000000000
     0.0000000000000000    6.0467739473824791    6.0467739473824791
     0.0000000000000000    6.0467739473824791   -6.0467739473824791
   Sr   Pb   S 
     5     3     8
Direct
  0.0000000000000000  0.9992648568375913  0.0007351431624087
  0.0000000000000000  0.5007351431624087  0.0007351431624087
  0.5000000000000000  0.2500000000000000  0.7500000000000000
  0.0000000000000000  0.5007351431624087  0.4992648568375913
  0.0000000000000000  0.9992648568375913  0.4992648568375913
  0.5000000000000000  0.2500000000000000  0.2500000000000000
  0.5000000000000000  0.7500000000000000  0.2500000000000000
  0.5000000000000000  0.7500000000000000  0.7500000000000000
  0.0000000000000000  0.2500000000000000  0.7500000000000000
  0.5000000000000000  0.0007857496339412  0.9992142503660588
  0.0000000000000000  0.2500000000000000  0.2500000000000000
  0.5000000000000000  0.4992142503660588  0.9992142503660588
  0.0000000000000000  0.7500000000000000  0.2500000000000000
  0.5000000000000000  0.4992142503660588  0.5007857496339412
  0.0000000000000000  0.7500000000000000  0.7500000000000000
  0.5000000000000000  0.0007857496339412  0.5007857496339412
 
  0.00000000E+00  0.00000000E+00  0.00000000E+00
  0.00000000E+00  0.00000000E+00  0.00000000E+00
  0.00000000E+00  0.00000000E+00  0.00000000E+00
  0.00000000E+00  0.00000000E+00  0.00000000E+00
  0.00000000E+00  0.00000000E+00  0.00000000E+00
  0.00000000E+00  0.00000000E+00  0.00000000E+00
  0.00000000E+00  0.00000000E+00  0.00000000E+00
  0.00000000E+00  0.00000000E+00  0.00000000E+00
  0.00000000E+00  0.00000000E+00  0.00000000E+00
  0.00000000E+00  0.00000000E+00  0.00000000E+00
  0.00000000E+00  0.00000000E+00  0.00000000E+00
  0.00000000E+00  0.00000000E+00  0.00000000E+00
  0.00000000E+00  0.00000000E+00  0.00000000E+00
  0.00000000E+00  0.00000000E+00  0.00000000E+00
  0.00000000E+00  0.00000000E+00  0.00000000E+00
  0.00000000E+00  0.00000000E+00  0.00000000E+00
