Sr Pb  S                                
   1.00000000000000     
     6.0316682559497572    0.0000000000000000    0.0000000000000000
     0.0000000000000000    6.0316682559497572    0.0000000000000000
     0.0000000000000000    0.0000000000000000   12.1053379713080407
   Sr   Pb   S 
     4     4     8
Direct
  0.0000000000000000  0.0000000000000000  0.0000000000000000
  0.0000000000000000  0.5000000000000000  0.2500000000000000
  0.5000000000000000  0.0000000000000000  0.7500000000000000
  0.5000000000000000  0.5000000000000000  0.5000000000000000
  0.5000000000000000  0.0000000000000000  0.2500000000000000
  0.5000000000000000  0.5000000000000000  0.0000000000000000
  0.0000000000000000  0.0000000000000000  0.5000000000000000
  0.0000000000000000  0.5000000000000000  0.7500000000000000
  0.0000000000000000  0.0000000000000000  0.2491237271963485
  0.5000000000000000  0.0000000000000000  0.9991237271963485
  0.0000000000000000  0.5000000000000000  0.0008762728036515
  0.5000000000000000  0.5000000000000000  0.2508762728036515
  0.0000000000000000  0.0000000000000000  0.7508762728036515
  0.5000000000000000  0.0000000000000000  0.5008762728036515
  0.0000000000000000  0.5000000000000000  0.4991237271963485
  0.5000000000000000  0.5000000000000000  0.7491237271963485
 
  0.00000000E+00  0.00000000E+00  0.00000000E+00
  0.00000000E+00  0.00000000E+00  0.00000000E+00
  0.00000000E+00  0.00000000E+00  0.00000000E+00
  0.00000000E+00  0.00000000E+00  0.00000000E+00
  0.00000000E+00  0.00000000E+00  0.00000000E+00
  0.00000000E+00  0.00000000E+00  0.00000000E+00
  0.00000000E+00  0.00000000E+00  0.00000000E+00
  0.00000000E+00  0.00000000E+00  0.00000000E+00
  0.00000000E+00  0.00000000E+00  0.00000000E+00
  0.00000000E+00  0.00000000E+00  0.00000000E+00
  0.00000000E+00  0.00000000E+00  0.00000000E+00
  0.00000000E+00  0.00000000E+00  0.00000000E+00
  0.00000000E+00  0.00000000E+00  0.00000000E+00
  0.00000000E+00  0.00000000E+00  0.00000000E+00
  0.00000000E+00  0.00000000E+00  0.00000000E+00
  0.00000000E+00  0.00000000E+00  0.00000000E+00
