Sr Pb  S                                
   1.00000000000000     
    -6.0195476277225284    0.0000000000000000    0.0000000000000000
     0.0000000000000000    6.0277366693122625    6.0277366693122625
     0.0000000000000000    6.0302314292921597   -6.0302314292921597
   Sr   Pb   S 
     2     6     8
Direct
  0.0000000000000000  0.0000000000000000  0.0000000000000000
  0.0000000000000000  0.5000000000000000  0.0000000000000000
  0.5000000000000000  0.2500000000000000  0.7493646919899675
  0.5000000000000000  0.2500000000000000  0.2506353080100325
  0.0000000000000000  0.5000000000000000  0.5000000000000000
  0.0000000000000000  0.0000000000000000  0.5000000000000000
  0.5000000000000000  0.7500000000000000  0.2506353080100325
  0.5000000000000000  0.7500000000000000  0.7493646919899675
  0.0000000000000000  0.2500000000000000  0.7510845120695464
  0.5000000000000000  0.0000000000000000  0.0000000000000000
  0.0000000000000000  0.2500000000000000  0.2489154879304536
  0.5000000000000000  0.5000000000000000  0.0000000000000000
  0.0000000000000000  0.7500000000000000  0.2489154879304536
  0.5000000000000000  0.5000000000000000  0.5000000000000000
  0.0000000000000000  0.7500000000000000  0.7510845120695464
  0.5000000000000000  0.0000000000000000  0.5000000000000000
 
  0.00000000E+00  0.00000000E+00  0.00000000E+00
  0.00000000E+00  0.00000000E+00  0.00000000E+00
  0.00000000E+00  0.00000000E+00  0.00000000E+00
  0.00000000E+00  0.00000000E+00  0.00000000E+00
  0.00000000E+00  0.00000000E+00  0.00000000E+00
  0.00000000E+00  0.00000000E+00  0.00000000E+00
  0.00000000E+00  0.00000000E+00  0.00000000E+00
  0.00000000E+00  0.00000000E+00  0.00000000E+00
  0.00000000E+00  0.00000000E+00  0.00000000E+00
  0.00000000E+00  0.00000000E+00  0.00000000E+00
  0.00000000E+00  0.00000000E+00  0.00000000E+00
  0.00000000E+00  0.00000000E+00  0.00000000E+00
  0.00000000E+00  0.00000000E+00  0.00000000E+00
  0.00000000E+00  0.00000000E+00  0.00000000E+00
  0.00000000E+00  0.00000000E+00  0.00000000E+00
  0.00000000E+00  0.00000000E+00  0.00000000E+00
