Sr Pb  S                                
   1.00000000000000     
    -6.0403383945340368   -0.0013344962766961   -6.0419341511992863
    -0.0013344962766961   -6.0403383945340368   -6.0419341511992863
    -6.0416728908107329   -6.0416728908107329    0.0000000000000000
   Sr   Pb   S 
     4     4     8
Direct
  0.0000000000000000  0.0000000000000000  0.0000000000000000
  0.0000000000000000  0.5000000000000000  0.0000000000000000
  0.5000000000000000  0.0000000000000000  0.0000000000000000
  0.5000000000000000  0.5000000000000000  0.5000000000000000
  0.0000000000000000  0.0000000000000000  0.5000000000000000
  0.5000000000000000  0.0000000000000000  0.5000000000000000
  0.0000000000000000  0.5000000000000000  0.5000000000000000
  0.5000000000000000  0.5000000000000000  0.0000000000000000
  0.7500000000000000  0.7500000000000000  0.2481960801303771
  0.7492091583615590  0.2492091583615590  0.7507908416384410
  0.2492091583615590  0.7492091583615590  0.7507908416384410
  0.7500000000000000  0.7500000000000000  0.7518065129004796
  0.2500000000000000  0.2500000000000000  0.7518039198696229
  0.2507908416384410  0.7507908416384410  0.2492091583615590
  0.7507908416384410  0.2507908416384410  0.2492091583615590
  0.2500000000000000  0.2500000000000000  0.2481934870995204
 
  0.00000000E+00  0.00000000E+00  0.00000000E+00
  0.00000000E+00  0.00000000E+00  0.00000000E+00
  0.00000000E+00  0.00000000E+00  0.00000000E+00
  0.00000000E+00  0.00000000E+00  0.00000000E+00
  0.00000000E+00  0.00000000E+00  0.00000000E+00
  0.00000000E+00  0.00000000E+00  0.00000000E+00
  0.00000000E+00  0.00000000E+00  0.00000000E+00
  0.00000000E+00  0.00000000E+00  0.00000000E+00
  0.00000000E+00  0.00000000E+00  0.00000000E+00
  0.00000000E+00  0.00000000E+00  0.00000000E+00
  0.00000000E+00  0.00000000E+00  0.00000000E+00
  0.00000000E+00  0.00000000E+00  0.00000000E+00
  0.00000000E+00  0.00000000E+00  0.00000000E+00
  0.00000000E+00  0.00000000E+00  0.00000000E+00
  0.00000000E+00  0.00000000E+00  0.00000000E+00
  0.00000000E+00  0.00000000E+00  0.00000000E+00
