Sr  S Pb                                
   1.00000000000000     
     6.0457509072617306    0.0000000000000000    0.0000000000000000
     0.0000000000000000    6.0485530566804098    0.0000000000000000
     0.0000000000000000    0.0000000000000000   12.1162424129318840
   Sr   S    Pb
     6     8     2
Direct
  0.0000000000000000  0.0000000000000000  0.9990855670029362
  0.0000000000000000  0.5000000000000000  0.2509144329970638
  0.5000000000000000  0.0000000000000000  0.2513891185301915
  0.5000000000000000  0.5000000000000000  0.9986108814698085
  0.0000000000000000  0.0000000000000000  0.5013553897539182
  0.0000000000000000  0.5000000000000000  0.7486446102460818
  0.0000000000000000  0.0000000000000000  0.2505481568082928
  0.5000000000000000  0.0000000000000000  0.0008151201148650
  0.0000000000000000  0.5000000000000000  0.9994518431917072
  0.5000000000000000  0.5000000000000000  0.2491848798851350
  0.0000000000000000  0.0000000000000000  0.7498888042501761
  0.5000000000000000  0.0000000000000000  0.4993154238310709
  0.0000000000000000  0.5000000000000000  0.5001111957498239
  0.5000000000000000  0.5000000000000000  0.7506845761689291
  0.5000000000000000  0.0000000000000000  0.7506284612505425
  0.5000000000000000  0.5000000000000000  0.4993715387494504
 
  0.00000000E+00  0.00000000E+00  0.00000000E+00
  0.00000000E+00  0.00000000E+00  0.00000000E+00
  0.00000000E+00  0.00000000E+00  0.00000000E+00
  0.00000000E+00  0.00000000E+00  0.00000000E+00
  0.00000000E+00  0.00000000E+00  0.00000000E+00
  0.00000000E+00  0.00000000E+00  0.00000000E+00
  0.00000000E+00  0.00000000E+00  0.00000000E+00
  0.00000000E+00  0.00000000E+00  0.00000000E+00
  0.00000000E+00  0.00000000E+00  0.00000000E+00
  0.00000000E+00  0.00000000E+00  0.00000000E+00
  0.00000000E+00  0.00000000E+00  0.00000000E+00
  0.00000000E+00  0.00000000E+00  0.00000000E+00
  0.00000000E+00  0.00000000E+00  0.00000000E+00
  0.00000000E+00  0.00000000E+00  0.00000000E+00
  0.00000000E+00  0.00000000E+00  0.00000000E+00
  0.00000000E+00  0.00000000E+00  0.00000000E+00
