Sr  S Pb                                
   1.00000000000000     
    -6.0304434184920774    0.0000000000000000    0.0000000000000000
     0.0000000000000000    6.0501021323046587    6.0501021323046587
     0.0000000000000000    6.0501021323046578   -6.0501021323046587
   Sr   S    Pb
     4     8     4
Direct
  0.0000000000000000  0.9978212425384427  0.0000000000000000
  0.0000000000000000  0.5021787574615573  0.0000000000000000
  0.5000000000000000  0.2500000000000000  0.7478212425384427
  0.5000000000000000  0.2500000000000000  0.2521787574615573
  0.0000000000000000  0.2500000000000000  0.7514157120205240
  0.5000000000000000  0.0014157120205240  0.0000000000000000
  0.0000000000000000  0.2500000000000000  0.2485842879794760
  0.5000000000000000  0.4985842879794760  0.0000000000000000
  0.0000000000000000  0.7500000000000000  0.2481676409173730
  0.5000000000000000  0.4981676409173730  0.5000000000000000
  0.0000000000000000  0.7500000000000000  0.7518323590826270
  0.5000000000000000  0.0018323590826270  0.5000000000000000
  0.0000000000000000  0.4996979770213343  0.5000000000000000
  0.0000000000000000  0.0003020229786657  0.5000000000000000
  0.5000000000000000  0.7500000000000000  0.2496979770213343
  0.5000000000000000  0.7500000000000000  0.7503020229786657
 
  0.00000000E+00  0.00000000E+00  0.00000000E+00
  0.00000000E+00  0.00000000E+00  0.00000000E+00
  0.00000000E+00  0.00000000E+00  0.00000000E+00
  0.00000000E+00  0.00000000E+00  0.00000000E+00
  0.00000000E+00  0.00000000E+00  0.00000000E+00
  0.00000000E+00  0.00000000E+00  0.00000000E+00
  0.00000000E+00  0.00000000E+00  0.00000000E+00
  0.00000000E+00  0.00000000E+00  0.00000000E+00
  0.00000000E+00  0.00000000E+00  0.00000000E+00
  0.00000000E+00  0.00000000E+00  0.00000000E+00
  0.00000000E+00  0.00000000E+00  0.00000000E+00
  0.00000000E+00  0.00000000E+00  0.00000000E+00
  0.00000000E+00  0.00000000E+00  0.00000000E+00
  0.00000000E+00  0.00000000E+00  0.00000000E+00
  0.00000000E+00  0.00000000E+00  0.00000000E+00
  0.00000000E+00  0.00000000E+00  0.00000000E+00
