Sr  S Pb                                
   1.00000000000000     
    -6.0541161124504796   -0.0009469343450548   -6.0559011703667656
     0.0000000000000000   -6.0568481047118201   -6.0568481047118201
    -6.0541161124504796   -6.0559011703667656   -0.0009469343450548
   Sr   S    Pb
     6     8     2
Direct
  0.0000000000000000  0.0000000000000000  0.0000000000000000
  0.0000000000000000  0.5000000000000000  0.0000000000000000
  0.5000000000000000  0.0000000000000000  0.0000000000000000
  0.0000000000000000  0.0000000000000000  0.5000000000000000
  0.5000000000000000  0.5000000000000000  0.5000000000000000
  0.5000000000000000  0.0000000000000000  0.5000000000000000
  0.7490932723021331  0.7509067276978669  0.2490932723021331
  0.7500000000000000  0.2480412103234286  0.7500000000000000
  0.2490932723021331  0.7509067276978669  0.7490932723021331
  0.7500000000000000  0.7519587896765785  0.7500000000000000
  0.2509067276978669  0.2490932723021331  0.7509067276978669
  0.2500000000000000  0.7519587896765714  0.2500000000000000
  0.7509067276978669  0.2490932723021331  0.2509067276978669
  0.2500000000000000  0.2480412103234286  0.2500000000000000
  0.0000000000000000  0.5000000000000000  0.5000000000000000
  0.5000000000000000  0.5000000000000000  0.0000000000000000
 
  0.00000000E+00  0.00000000E+00  0.00000000E+00
  0.00000000E+00  0.00000000E+00  0.00000000E+00
  0.00000000E+00  0.00000000E+00  0.00000000E+00
  0.00000000E+00  0.00000000E+00  0.00000000E+00
  0.00000000E+00  0.00000000E+00  0.00000000E+00
  0.00000000E+00  0.00000000E+00  0.00000000E+00
  0.00000000E+00  0.00000000E+00  0.00000000E+00
  0.00000000E+00  0.00000000E+00  0.00000000E+00
  0.00000000E+00  0.00000000E+00  0.00000000E+00
  0.00000000E+00  0.00000000E+00  0.00000000E+00
  0.00000000E+00  0.00000000E+00  0.00000000E+00
  0.00000000E+00  0.00000000E+00  0.00000000E+00
  0.00000000E+00  0.00000000E+00  0.00000000E+00
  0.00000000E+00  0.00000000E+00  0.00000000E+00
  0.00000000E+00  0.00000000E+00  0.00000000E+00
  0.00000000E+00  0.00000000E+00  0.00000000E+00
