Sr Pb  S                                
   1.00000000000000     
    -6.0253937939964102    0.0000000000000000    0.0000000000000000
     0.0000000000000000    6.0377010408350769    6.0377010408350769
     0.0000000000000000    6.0399732075579378   -6.0399732075579378
   Sr   Pb   S 
     3     5     8
Direct
  0.0000000000000000  0.9990191669891999  0.0017803220761792
  0.0000000000000000  0.5009808330108072  0.0017803220761792
  0.5000000000000000  0.2500000000000000  0.7465558111141064
  0.5000000000000000  0.2500000000000000  0.2494188105424087
  0.0000000000000000  0.4999933184954628  0.5007449791145078
  0.0000000000000000  0.0000066815045372  0.5007449791145078
  0.5000000000000000  0.7500000000000000  0.2498385702398451
  0.5000000000000000  0.7500000000000000  0.7494549006248263
  0.0000000000000000  0.2500000000000000  0.7518155350823221
  0.5000000000000000  0.0008568149863279  0.9988064657579443
  0.0000000000000000  0.2500000000000000  0.2494743959229169
  0.5000000000000000  0.4991431850136721  0.9988064657579443
  0.0000000000000000  0.7500000000000000  0.2486478410286139
  0.5000000000000000  0.4994482150706219  0.5002168599724399
  0.0000000000000000  0.7500000000000000  0.7516968816028324
  0.5000000000000000  0.0005517849293781  0.5002168599724399
 
  0.00000000E+00  0.00000000E+00  0.00000000E+00
  0.00000000E+00  0.00000000E+00  0.00000000E+00
  0.00000000E+00  0.00000000E+00  0.00000000E+00
  0.00000000E+00  0.00000000E+00  0.00000000E+00
  0.00000000E+00  0.00000000E+00  0.00000000E+00
  0.00000000E+00  0.00000000E+00  0.00000000E+00
  0.00000000E+00  0.00000000E+00  0.00000000E+00
  0.00000000E+00  0.00000000E+00  0.00000000E+00
  0.00000000E+00  0.00000000E+00  0.00000000E+00
  0.00000000E+00  0.00000000E+00  0.00000000E+00
  0.00000000E+00  0.00000000E+00  0.00000000E+00
  0.00000000E+00  0.00000000E+00  0.00000000E+00
  0.00000000E+00  0.00000000E+00  0.00000000E+00
  0.00000000E+00  0.00000000E+00  0.00000000E+00
  0.00000000E+00  0.00000000E+00  0.00000000E+00
  0.00000000E+00  0.00000000E+00  0.00000000E+00
