Sr Pb  S                                
   1.00000000000000     
    -6.0259389056743888    0.0017358816737704   -6.0283126329595760
     0.0000000000000000   -6.0265767512858055   -6.0265767512858055
    -6.0259389056743888   -6.0283126329595760    0.0017358816737704
   Sr   Pb   S 
     2     6     8
Direct
  0.0000000000000000  0.0000000000000000  0.0000000000000000
  0.0000000000000000  0.5000000000000000  0.0000000000000000
  0.5000000000000000  0.0000000000000000  0.0000000000000000
  0.0000000000000000  0.0000000000000000  0.5000000000000000
  0.5000000000000000  0.5000000000000000  0.5000000000000000
  0.5000000000000000  0.0000000000000000  0.5000000000000000
  0.0000000000000000  0.5000000000000000  0.5000000000000000
  0.5000000000000000  0.5000000000000000  0.0000000000000000
  0.7516043165928892  0.7500000000000000  0.2483956834071108
  0.7507689239816244  0.2492310760183756  0.7507689239816244
  0.2483956834071108  0.7500000000000000  0.7516043165928892
  0.7507689239816244  0.7492310760183756  0.7507689239816244
  0.2483956834071108  0.2500000000000000  0.7516043165928892
  0.2492310760183756  0.7507689239816244  0.2492310760183756
  0.7516043165928892  0.2500000000000000  0.2483956834071108
  0.2492310760183756  0.2507689239816244  0.2492310760183756
 
  0.00000000E+00  0.00000000E+00  0.00000000E+00
  0.00000000E+00  0.00000000E+00  0.00000000E+00
  0.00000000E+00  0.00000000E+00  0.00000000E+00
  0.00000000E+00  0.00000000E+00  0.00000000E+00
  0.00000000E+00  0.00000000E+00  0.00000000E+00
  0.00000000E+00  0.00000000E+00  0.00000000E+00
  0.00000000E+00  0.00000000E+00  0.00000000E+00
  0.00000000E+00  0.00000000E+00  0.00000000E+00
  0.00000000E+00  0.00000000E+00  0.00000000E+00
  0.00000000E+00  0.00000000E+00  0.00000000E+00
  0.00000000E+00  0.00000000E+00  0.00000000E+00
  0.00000000E+00  0.00000000E+00  0.00000000E+00
  0.00000000E+00  0.00000000E+00  0.00000000E+00
  0.00000000E+00  0.00000000E+00  0.00000000E+00
  0.00000000E+00  0.00000000E+00  0.00000000E+00
  0.00000000E+00  0.00000000E+00  0.00000000E+00
