Sr Pb  S Sr Pb  S 
 1.0000000000000000
    -6.0198998451000003    0.0000000000000000   -6.0198998451000003
     0.0000000000000000   -6.0198998451000003   -6.0198998451000003
    -6.0198998451000003   -6.0198998451000003    0.0000000000000000
 Sr  Pb  S   Sr  Pb  S  
   3   1   4   2   2   4
Cartesian
  0.0000000000000000  0.0000000000000000  0.0000000000000000
  0.0000000000000000 -3.0099499225500010 -3.0099499225500010
 -3.0099499225500010  0.0000000000000000 -3.0099499225500010
 -3.0099499225500010 -3.0099499225500010  0.0000000000000000
 -6.0198998451000012 -6.0198998451000012 -9.0298497676500027
 -9.0298497676500027 -6.0198998451000012 -6.0198998451000012
 -6.0198998451000012 -9.0298497676500027 -6.0198998451000012
 -9.0298497676500027 -9.0298497676500027 -9.0298497676500027
 -6.0198998451000012 -6.0198998451000012 -6.0198998451000021
 -6.0198998451000003 -3.0099499225499993 -3.0099499225499975
 -3.0099499225499993 -6.0198998451000003 -3.0099499225499975
 -3.0099499225500010 -3.0099499225500010 -6.0198998451000021
 -6.0198998450999994 -6.0198998450999994 -3.0099499225499966
 -3.0099499225499988 -6.0198998451000012 -6.0198998451000003
 -6.0198998451000012 -3.0099499225499988 -6.0198998451000003
 -3.0099499225499997 -3.0099499225499997 -3.0099499225499979
