Sr  S Sr Pb  S 
 1.0000000000000000
    -6.0198998451000003    0.0000000000000000    0.0000000000000000
     0.0000000000000000    6.0198998451000003    6.0198998451000003
     0.0000000000000000    6.0198998451000003   -6.0198998451000003
 Sr  S   Sr  Pb  S  
   4   4   2   2   4
Cartesian
  0.0000000000000000  0.0000000000000000  0.0000000000000000
  0.0000000000000000  3.0099499225499997  3.0099499225499997
 -3.0099499225500010  6.0198998451000012 -3.0099499225500015
 -3.0099499225500010  3.0099499225500002  0.0000000000000000
  0.0000000000000000  6.0198998451000012 -3.0099499225500015
 -3.0099499225500010  0.0000000000000000  0.0000000000000000
  0.0000000000000000  3.0099499225500002  0.0000000000000000
 -3.0099499225500010  3.0099499225499997  3.0099499225499997
  0.0000000000000000  6.0198998451000012 -0.0000000000000013
  0.0000000000000000  3.0099499225500010 -3.0099499225499975
 -3.0099499225500010  6.0198998451000003  3.0099499225500024
 -3.0099499225500010  9.0298497676500027  0.0000000000000000
  0.0000000000000000  6.0198998451000003  3.0099499225500024
 -3.0099499225500010  6.0198998451000012 -0.0000000000000013
  0.0000000000000000  9.0298497676500027  0.0000000000000000
 -3.0099499225500010  3.0099499225500010 -3.0099499225499975
