Sr Pb  S Pb Sr Pb  S 
 1.0000000000000000
     6.0198998451000003    0.0000000000000000    0.0000000000000000
     0.0000000000000000    6.0198998451000003    0.0000000000000000
     0.0000000000000000    0.0000000000000000   12.0397996902000006
 Sr  Pb  S   Pb  Sr  Pb  S  
   3   1   4   1   1   2   4
Cartesian
  0.0000000000000000  0.0000000000000000  0.0000000000000000
  0.0000000000000000  3.0099499225499997  3.0099499225500002
  3.0099499225499997  0.0000000000000000  3.0099499225500002
  3.0099499225499997  3.0099499225499997  0.0000000000000000
  0.0000000000000000  0.0000000000000000  3.0099499225500002
  3.0099499225499997  0.0000000000000000  0.0000000000000000
  0.0000000000000000  3.0099499225499997  0.0000000000000000
  3.0099499225499997  3.0099499225499997  3.0099499225500002
  0.0000000000000000  0.0000000000000000  6.0198998450999994
  0.0000000000000000  3.0099499225499997  9.0298497676500027
  3.0099499225499997  0.0000000000000000  9.0298497676500027
  3.0099499225499997  3.0099499225499997  6.0198998450999994
  0.0000000000000000  0.0000000000000000  9.0298497676500027
  3.0099499225499997  0.0000000000000000  6.0198998450999994
  0.0000000000000000  3.0099499225499997  6.0198998450999994
  3.0099499225499997  3.0099499225499997  9.0298497676500027
