Sr Pb  S 
 1.0000000000000000
     6.0198998451000003    0.0000000000000000    0.0000000000000000
     0.0000000000000000    6.0198998451000003    0.0000000000000000
     0.0000000000000000    0.0000000000000000    6.0198998451000003
 Sr  Pb  S  
   2   2   4
Cartesian
  0.0000000000000000  0.0000000000000000  0.0000000000000000
  0.0000000000000000  3.0099499225499997  3.0099499225499997
  3.0099499225499997  0.0000000000000000  3.0099499225499997
  3.0099499225499997  3.0099499225499997  0.0000000000000000
  0.0000000000000000  0.0000000000000000  3.0099499225499997
  3.0099499225499997  0.0000000000000000  0.0000000000000000
  0.0000000000000000  3.0099499225499997  0.0000000000000000
  3.0099499225499997  3.0099499225499997  3.0099499225499997
